C  Hg
 1.0000000000000000
     7.4031720161000001    0.0000000000000000    0.0000000000000000
    -3.7015860081000000    6.4113350346000004    0.0000000000000000
     0.0000000000000000    0.0000000000000000   15.0000000000000000
 C   Hg 
  18   1
Cartesian
 -0.0255290538186190  0.0147392060707785  7.5007100282126684
 -1.2338620030000000  2.1076332682218744  7.5007100282126684
 -2.4420557084944230  4.2890429556728558  7.5002298312433702
  2.4677240050000000 -0.0296391998878674  7.5002298312433702
  1.2591220646491359  2.1516955852154771  7.4990289232936229
 -0.0256682965055769  4.2890429556728558  7.5002298312433702
  4.9609770648186187  0.0147392060707785  7.5007100282126684
  3.6763259463508637  2.1516955852154771  7.4990289232936229
  2.4677240050000000  4.2450555402606831  7.4990289232936229
 -0.0256683993005035  1.4099214812015199  7.5002297592150997
 -1.2338620149999999  3.5913312139087843  7.5007100757214529
 -2.4421949713642577  5.6842252811655527  7.5007100757214529
  2.4677239929999999  1.4539088487854279  7.4990289225344045
  1.2591219834857650  3.5472689429608875  7.4990289225344045
 -0.0255290576357420  5.6842252811655527  7.5007100757214529
  4.9611163863005032  1.4099214812015199  7.5002297592150997
  3.6763260035142342  3.5472689429608875  7.4990289225344045
  2.4677239929999999  5.7286037766391491  7.5002297592150997
  2.4677240050000000  2.8494822410000000 10.9001874008408279
