 argument  1 = uo2i2water2_ecp_b3lyp_geopt.nw
                                         
                                         


             Northwest Computational Chemistry Package (NWChem) 7.2.2
             --------------------------------------------------------


                    Environmental Molecular Sciences Laboratory
                       Pacific Northwest National Laboratory
                                Richland, WA 99352

                              Copyright (c) 1994-2022
                       Pacific Northwest National Laboratory
                            Battelle Memorial Institute

             NWChem is an open-source computational chemistry package
                        distributed under the terms of the
                      Educational Community License (ECL) 2.0
             A copy of the license is included with this distribution
                              in the LICENSE.TXT file

                                  ACKNOWLEDGMENT
                                  --------------

            This software and its documentation were developed at the
            EMSL at Pacific Northwest National Laboratory, a multiprogram
            national laboratory, operated for the U.S. Department of Energy
            by Battelle under Contract Number DE-AC05-76RL01830. Support
            for this work was provided by the Department of Energy Office
            of Biological and Environmental Research, Office of Basic
            Energy Sciences, and the Office of Advanced Scientific Computing.


           Job information
           ---------------

    hostname        = danil-B760M-DS3H-DDR4
    program         = /usr/bin/nwchem
    date            = Tue Sep  8 19:31:13 2026

    compiled        = Mon_Apr_01_11:12:32_2024
    source          = /build/nwchem-qbYJLs/nwchem-7.2.2/build-openmpi
    nwchem branch   = 7.2.2
    nwchem revision = N/A
    ga revision     = N/A
    use scalapack   = T
    input           = uo2i2water2_ecp_b3lyp_geopt.nw
    prefix          = uo2i2water2_ecp_b3lyp_geopt.
    data base       = ./uo2i2water2_ecp_b3lyp_geopt.db
    status          = startup
    nproc           =        4
    time left       =     -1s



           Memory information
           ------------------

    heap     =   26214400 doubles =    200.0 Mbytes
    stack    =   26214397 doubles =    200.0 Mbytes
    global   =   52428800 doubles =    400.0 Mbytes (distinct from heap & stack)
    total    =  104857597 doubles =    800.0 Mbytes
    verify   = yes
    hardfail = no 


           Directory information
           ---------------------

  0 permanent = .
  0 scratch   = .




                                NWChem Input Module
                                -------------------


                                 UO2I2(OH2)2 - DFT
                                 -----------------

 Scaling coordinates for geometry "geometry" by  1.889725989
 (inverse scale =  0.529177249)


          ------
          auto-z
          ------
      warning. autoz generated   10 bonds for atom    1
  no constraints, skipping    0.0000000000000000     
  no constraints, skipping    0.0000000000000000     


                             Geometry "geometry" -> ""
                             -------------------------

 Output coordinates in angstroms (scale by  1.889725989 to convert to a.u.)

  No.       Tag          Charge          X              Y              Z
 ---- ---------------- ---------- -------------- -------------- --------------
    1 U                   92.0000     0.00000000     0.00000000     0.00000000
    2 O                    8.0000     0.00000000     0.00000000     1.77300000
    3 O                    8.0000     0.00000000     0.00000000    -1.77300000
    4 I                   53.0000     0.00000000    -3.02670000     0.00000000
    5 I                   53.0000     0.00000000     3.02670000     0.00000000
    6 O                    8.0000     2.31800000     0.00000000     0.00000000
    7 O                    8.0000    -2.31800000     0.00000000     0.00000000
    8 H                    1.0000     2.65790000    -0.74870000     0.05000000
    9 H                    1.0000     2.65790000     0.74870000    -0.05000000
   10 H                    1.0000    -2.65790000    -0.74870000    -0.05000000
   11 H                    1.0000    -2.65790000     0.74870000     0.05000000

      Atomic Mass 
      ----------- 

      U                238.050800
      O                 15.994910
      I                126.900400
      H                  1.007825


 Effective nuclear repulsion energy (a.u.)    3442.6826737550

            Nuclear Dipole moment (a.u.) 
            ----------------------------
        X                 Y               Z
 ---------------- ---------------- ----------------
     0.0000000000     0.0000000000     0.0000000000

      Symmetry information
      --------------------

 Group name             D2        
 Group number             11
 Group order               4
 No. of unique centers     5

      Symmetry unique atoms

     1    2    4    6    8



                                Z-matrix (autoz)
                                -------- 

 Units are Angstrom for bonds and degrees for angles

      Type          Name      I     J     K     L     M      Value
      ----------- --------  ----- ----- ----- ----- ----- ----------
    1 Stretch                  1     2                       1.77300
    2 Stretch                  1     3                       1.77300
    3 Stretch                  1     4                       3.02670
    4 Stretch                  1     5                       3.02670
    5 Stretch                  1     6                       2.31800
    6 Stretch                  1     7                       2.31800
    7 Stretch                  1     8                       2.76179
    8 Stretch                  1     9                       2.76179
    9 Stretch                  1    10                       2.76179
   10 Stretch                  1    11                       2.76179
   11 Stretch                  6     8                       0.82376
   12 Stretch                  6     9                       0.82376
   13 Stretch                  7    10                       0.82376
   14 Stretch                  7    11                       0.82376
   15 Bend                     1     6     8               114.36948
   16 Bend                     1     6     9               114.36948
   17 Bend                     1     7    10               114.36948
   18 Bend                     1     7    11               114.36948
   19 Bend                     1     8     6                49.86530
   20 Bend                     1     9     6                49.86530
   21 Bend                     1    10     7                49.86530
   22 Bend                     1    11     7                49.86530
   23 Bend                     2     1     4                90.00000
   24 Bend                     2     1     5                90.00000
   25 Bend                     2     1     6                90.00000
   26 Bend                     2     1     7                90.00000
   27 Bend                     2     1     8                88.96265
   28 Bend                     2     1     9                91.03735
   29 Bend                     2     1    10                91.03735
   30 Bend                     2     1    11                88.96265
   31 Bend                     3     1     4                90.00000
   32 Bend                     3     1     5                90.00000
   33 Bend                     3     1     6                90.00000
   34 Bend                     3     1     7                90.00000
   35 Bend                     3     1     8                91.03735
   36 Bend                     3     1     9                88.96265
   37 Bend                     3     1    10                88.96265
   38 Bend                     3     1    11                91.03735
   39 Bend                     4     1     6                90.00000
   40 Bend                     4     1     7                90.00000
   41 Bend                     4     1     8                74.27072
   42 Bend                     4     1     9               105.72928
   43 Bend                     4     1    10                74.27072
   44 Bend                     4     1    11               105.72928
   45 Bend                     5     1     6                90.00000
   46 Bend                     5     1     7                90.00000
   47 Bend                     5     1     8               105.72928
   48 Bend                     5     1     9                74.27072
   49 Bend                     5     1    10               105.72928
   50 Bend                     5     1    11                74.27072
   51 Bend                     6     1     8                15.76522
   52 Bend                     6     1     9                15.76522
   53 Bend                     6     1    10               164.23478
   54 Bend                     6     1    11               164.23478
   55 Bend                     7     1     8               164.23478
   56 Bend                     7     1     9               164.23478
   57 Bend                     7     1    10                15.76522
   58 Bend                     7     1    11                15.76522
   59 Bend                     8     1     9                31.53044
   60 Bend                     8     1    10               148.54145
   61 Bend                     8     6     9               131.26105
   62 Bend                     9     1    11               148.54145
   63 Bend                    10     1    11                31.53044
   64 Bend                    10     7    11               131.26105
   65 Torsion                  1     8     6     9        -180.00000
   66 Torsion                  1     9     6     8        -180.00000
   67 Torsion                  1    10     7    11        -180.00000
   68 Torsion                  1    11     7    10        -180.00000
   69 Torsion                  2     1     6     8          86.17932
   70 Torsion                  2     1     6     9         -93.82068
   71 Torsion                  2     1     7    10         -93.82068
   72 Torsion                  2     1     7    11          86.17932
   73 Torsion                  2     1     8     6         -93.67736
   74 Torsion                  2     1     9     6          86.32264
   75 Torsion                  2     1    10     7          86.32264
   76 Torsion                  2     1    11     7         -93.67736
   77 Torsion                  3     1     6     8         -93.82068
   78 Torsion                  3     1     6     9          86.17932
   79 Torsion                  3     1     7    10          86.17932
   80 Torsion                  3     1     7    11         -93.82068
   81 Torsion                  3     1     8     6          86.32264
   82 Torsion                  3     1     9     6         -93.67736
   83 Torsion                  3     1    10     7         -93.67736
   84 Torsion                  3     1    11     7          86.32264
   85 Torsion                  4     1     6     8          -3.82068
   86 Torsion                  4     1     6     9         176.17932
   87 Torsion                  4     1     7    10          -3.82068
   88 Torsion                  4     1     7    11         176.17932
   89 Torsion                  4     1     8     6         176.03045
   90 Torsion                  4     1     9     6          -3.96955
   91 Torsion                  4     1    10     7         176.03045
   92 Torsion                  4     1    11     7          -3.96955
   93 Torsion                  5     1     6     8         176.17932
   94 Torsion                  5     1     6     9          -3.82068
   95 Torsion                  5     1     7    10         176.17932
   96 Torsion                  5     1     7    11          -3.82068
   97 Torsion                  5     1     8     6          -3.96955
   98 Torsion                  5     1     9     6         176.03045
   99 Torsion                  5     1    10     7          -3.96955
  100 Torsion                  5     1    11     7         176.03045
  101 Torsion                  6     1    10     7        -180.00000
  102 Torsion                  6     1    11     7        -180.00000
  103 Torsion                  6     8     1     7        -180.00000
  104 Torsion                  6     8     1     9           0.00000
  105 Torsion                  6     8     1    10         176.03045
  106 Torsion                  6     8    11     7         170.90281
  107 Torsion                  8     6     1    11         172.35864
  108 Torsion                  6     9     1     7        -180.00000
  109 Torsion                  6     9     1     8           0.00000
  110 Torsion                  6     9    10     7         170.90281
  111 Torsion                  9     6     1    10         172.35864
  112 Torsion                  6     9     1    11         176.03045
  113 Torsion                  7    10     1     8         176.03045
  114 Torsion                  9     1     7    10         172.35864
  115 Torsion                  7    10     1    11           0.00000
  116 Torsion                  8     1     7    11         172.35864
  117 Torsion                  7    11     1     9         176.03045
  118 Torsion                  7    11     1    10           0.00000
  119 Torsion                  8     1     6     9        -180.00000
  120 Torsion                  8     1     7    10          -7.64136
  121 Torsion                  8     6     7    10          -7.64136
  122 Torsion                  8     6     7    11         172.35864
  123 Torsion                  8     6     1     9        -180.00000
  124 Torsion                  8     6     1    10          -7.64136
  125 Torsion                  9     1     7    11          -7.64136
  126 Torsion                  9     6     7    10         172.35864
  127 Torsion                  9     6     7    11          -7.64136
  128 Torsion                  9     6     1    11          -7.64136
  129 Torsion                 10     1     7    11        -180.00000
  130 Torsion                 10     7     1    11        -180.00000


            XYZ format geometry
            -------------------
    11
 geometry
 U                     0.00000000     0.00000000     0.00000000
 O                     0.00000000     0.00000000     1.77300000
 O                     0.00000000     0.00000000    -1.77300000
 I                     0.00000000    -3.02670000     0.00000000
 I                     0.00000000     3.02670000     0.00000000
 O                     2.31800000     0.00000000     0.00000000
 O                    -2.31800000     0.00000000     0.00000000
 H                     2.65790000    -0.74870000     0.05000000
 H                     2.65790000     0.74870000    -0.05000000
 H                    -2.65790000    -0.74870000    -0.05000000
 H                    -2.65790000     0.74870000     0.05000000

 ==============================================================================
                                internuclear distances
 ------------------------------------------------------------------------------
       center one      |      center two      | atomic units |  angstroms
 ------------------------------------------------------------------------------
    2 O                |   1 U                |     3.35048  |     1.77300
    3 O                |   1 U                |     3.35048  |     1.77300
    4 I                |   1 U                |     5.71963  |     3.02670
    5 I                |   1 U                |     5.71963  |     3.02670
    6 O                |   1 U                |     4.38038  |     2.31800
    7 O                |   1 U                |     4.38038  |     2.31800
    8 H                |   6 O                |     1.55668  |     0.82376
    9 H                |   6 O                |     1.55668  |     0.82376
   10 H                |   7 O                |     1.55668  |     0.82376
   11 H                |   7 O                |     1.55668  |     0.82376
 ------------------------------------------------------------------------------
                         number of included internuclear distances:         10
 ==============================================================================



 ==============================================================================
                                 internuclear angles
 ------------------------------------------------------------------------------
        center 1       |       center 2       |       center 3       |  degrees
 ------------------------------------------------------------------------------
    2 O                |   1 U                |   3 O                |   180.00
    2 O                |   1 U                |   4 I                |    90.00
    2 O                |   1 U                |   5 I                |    90.00
    2 O                |   1 U                |   6 O                |    90.00
    2 O                |   1 U                |   7 O                |    90.00
    3 O                |   1 U                |   4 I                |    90.00
    3 O                |   1 U                |   5 I                |    90.00
    3 O                |   1 U                |   6 O                |    90.00
    3 O                |   1 U                |   7 O                |    90.00
    4 I                |   1 U                |   5 I                |   180.00
    4 I                |   1 U                |   6 O                |    90.00
    4 I                |   1 U                |   7 O                |    90.00
    5 I                |   1 U                |   6 O                |    90.00
    5 I                |   1 U                |   7 O                |    90.00
    6 O                |   1 U                |   7 O                |   180.00
    1 U                |   6 O                |   8 H                |   114.37
    1 U                |   6 O                |   9 H                |   114.37
    8 H                |   6 O                |   9 H                |   131.26
    1 U                |   7 O                |  10 H                |   114.37
    1 U                |   7 O                |  11 H                |   114.37
   10 H                |   7 O                |  11 H                |   131.26
 ------------------------------------------------------------------------------
                            number of included internuclear angles:         21
 ==============================================================================



                      Basis "ao basis" -> "" (spherical)
                      -----
  U (Uranium)
  -----------
            Exponent  Coefficients 
       -------------- ---------------------------------------------------------
  1 S  1.21252530E+01  0.021921
  1 S  7.16154500E+00 -0.225160
  1 S  4.77483600E+00  0.560299
  1 S  2.01169300E+00 -1.071209

  2 S  5.86852000E-01  1.000000

  3 S  2.79115000E-01  1.000000

  4 S  6.33720000E-02  1.000000

  5 S  2.56110000E-02  1.000000

  6 P  1.72547700E+01  0.001398
  6 P  7.73535600E+00 -0.033346
  6 P  5.15587800E+00  0.110578
  6 P  2.24167000E+00 -0.317268

  7 P  5.81858000E-01  1.000000

  8 P  2.67908000E-01  1.000000

  9 P  8.34420000E-02  1.000000

 10 P  3.21300000E-02  1.000000

 11 D  4.84107000E+00  0.005731
 11 D  2.16016200E+00 -0.057236
 11 D  5.75630000E-01  0.238828

 12 D  2.78136000E-01  1.000000

 13 D  1.24879000E-01  1.000000

 14 D  5.15480000E-02  1.000000

 15 F  2.43644100E+00  0.355011
 15 F  1.14468200E+00  0.400846
 15 F  5.29693000E-01  0.304679

 16 F  2.40596000E-01  1.000000

 17 F  1.01867000E-01  1.000000

 18 G  1.18000000E+00  1.000000

 19 G  4.20000000E-01  1.000000

  I (Iodine)
  ----------
            Exponent  Coefficients 
       -------------- ---------------------------------------------------------
  1 S  2.12276500E+00  1.104028
  1 S  1.77048100E+00 -1.535326
  1 S  3.13084000E-01  0.751603

  2 S  1.24071000E-01  1.000000

  3 P  2.43288700E+00  0.442232
  3 P  2.13724900E+00 -0.583809
  3 P  3.14546000E-01  0.626606

  4 P  1.04945000E-01  1.000000

  5 P  3.26410000E-02  1.000000

  O (Oxygen)
  ----------
            Exponent  Coefficients 
       -------------- ---------------------------------------------------------
  1 S  3.22037000E+02  0.059239
  1 S  4.84308000E+01  0.351500
  1 S  1.04206000E+01  0.707658

  2 S  7.40294000E+00 -0.404453
  2 S  1.57620000E+00  1.221560

  3 P  7.40294000E+00  0.244586
  3 P  1.57620000E+00  0.853955

  4 S  3.73684000E-01  1.000000

  5 P  3.73684000E-01  1.000000

  H (Hydrogen)
  ------------
            Exponent  Coefficients 
       -------------- ---------------------------------------------------------
  1 S  5.44717800E+00  0.156285
  1 S  8.24547000E-01  0.904691

  2 S  1.83192000E-01  1.000000



 Summary of "ao basis" -> "" (spherical)
 ------------------------------------------------------------------------------
       Tag                 Description            Shells   Functions and Types
 ---------------- ------------------------------  ------  ---------------------
 U                     stuttgart rlc ecp            19       79   5s5p4d3f2g
 I                     stuttgart rlc ecp             5       11   2s3p
 O                           3-21G*                  5        9   3s2p
 H                           3-21G*                  2        2   2s



 **** WARNING Zero Coefficient **** on atom "               U"
 angular momentum value:-1  standard basis set name: "stuttgart rlc ecp"
 input line that generated warning:
  2118: 2      1.000000000            0.000000000
  
 Local ECP potential is zero and ignored
  

 **** WARNING Zero Coefficient **** on atom "               I"
 angular momentum value:-1  standard basis set name: "stuttgart rlc ecp"
 input line that generated warning:
  1856: 2      1.000000000            0.000000000
  
 Local ECP potential is zero and ignored
  
                 ECP       "ecp basis" -> "" (cartesian)
                -----
  U (Uranium) Replaces    78 electrons
  ------------------------------------
             Channel    R-exponent     Exponent     Coefficients
         ------------ ---------------------------------------------------------
  1 U-s       Both         2.00        4.063653     112.920103
  1 U-s       Both         2.00        1.883995      15.647500
  1 U-s       Both         2.00        0.886567      -3.689971

  2 U-p       Both         2.00        3.986181     118.758016
  2 U-p       Both         2.00        2.000160      15.077228
  2 U-p       Both         2.00        0.960841       0.556720

  3 U-d       Both         2.00        4.147972      60.855892
  3 U-d       Both         2.00        2.234563      29.280047
  3 U-d       Both         2.00        0.913695       4.998029

  4 U-f       Both         2.00        3.998938      49.924035
  4 U-f       Both         2.00        1.998840     -24.674042
  4 U-f       Both         2.00        0.995641       1.389480

  5 U-g       Both         2.00        3.817422     -36.040977
  5 U-g       Both         2.00        0.262501      -0.090511

  I (Iodine) Replaces    46 electrons
  -----------------------------------
             Channel    R-exponent     Exponent     Coefficients
         ------------ ---------------------------------------------------------
  1 U-s       Both         2.00        3.511200      83.113863
  1 U-s       Both         2.00        1.755600       5.201876

  2 U-p       Both         2.00        2.968800      82.811109
  2 U-p       Both         2.00        1.484400       3.379682

  3 U-d       Both         2.00        1.906600      10.304277
  3 U-d       Both         2.00        0.953300       7.588032

  4 U-f       Both         2.00        2.307500     -21.477936



                           NWChem Geometry Optimization
                           ----------------------------




                                 UO2I2(OH2)2 - DFT


  no constraints, skipping    0.0000000000000000     
 maximum gradient threshold         (gmax) =   0.004500
 rms gradient threshold             (grms) =   0.003000
 maximum cartesian step threshold   (xmax) =   0.018000
 rms cartesian step threshold       (xrms) =   0.012000
 fixed trust radius                (trust) =   0.300000
 maximum step size to saddle      (sadstp) =   0.100000
 energy precision                  (eprec) =   5.0D-06
 maximum number of steps          (nptopt) =   40
 initial hessian option           (inhess) =    0
 line search option               (linopt) =    1
 hessian update option            (modupd) =    1
 saddle point option              (modsad) =    0
 initial eigen-mode to follow     (moddir) =    0
 initial variable to follow       (vardir) =    0
 follow first negative mode     (firstneg) =    T
 apply conjugacy                    (opcg) =    F
 source of zmatrix                         =   autoz   


          -------------------
          Energy Minimization
          -------------------


 Names of Z-matrix variables 
    1              2              3              4              5         
    6              7              8              9             10         
   11             12             13             14             15         
   16             17             18             19             20         
   21             22             23             24             25         
   26             27             28             29             30         
   31             32             33             34             35         
   36             37             38             39             40         
   41             42             43             44             45         
   46             47             48             49             50         
   51             52             53             54             55         
   56             57             58             59             60         
   61             62             63             64             65         
   66             67             68             69             70         
   71             72             73             74             75         
   76             77             78             79             80         
   81             82             83             84             85         
   86             87             88             89             90         
   91             92             93             94             95         
   96             97             98             99            100         
  101            102            103            104            105         
  106            107            108            109            110         
  111            112            113            114            115         
  116            117            118            119            120         
  121            122            123            124            125         
  126            127            128            129            130         

 Variables with the same non-blank name are constrained to be equal


 Using diagonal initial Hessian 
 Scaling for Hessian diagonals: bonds = 1.00  angles = 0.25  torsions = 0.10

          --------
          Step   0
          --------

                                 NWChem DFT Module
                                 -----------------


                                 UO2I2(OH2)2 - DFT



  Caching 1-el integrals 
  WARNING: movecs_in_org=atomic not equal to movecs_in=./uo2i2water2_ecp_b3lyp_geopt.movecs
   Time after variat. SCF:      1.1
   Time prior to 1st pass:      1.1

           Memory utilization after 1st SCF pass: 
           Heap Space remaining (MW):       16.68            16676456
          Stack Space remaining (MW):       26.21            26213380

   convergence    iter        energy       DeltaE   RMS-Dens  Diis-err    time
 ---------------- ----- ----------------- --------- --------- ---------  ------
 d= 0,ls=0.0,diis     1   -374.6487738604 -7.13D+02  6.42D-02  1.02D+01     2.1
 d= 0,ls=0.0,diis     2   -321.0596040566  5.36D+01  4.62D-02  4.39D+02     2.9
 d= 0,ls=0.5,diis     3   -370.3712765785 -4.93D+01  3.98D-03  6.26D+01     3.9
 d= 0,ls=0.5,diis     4   -371.6117922299 -1.24D+00  2.11D-03  5.07D+01     4.7
 d= 0,ls=0.5,diis     5   -372.2281010083 -6.16D-01  2.72D-03  4.38D+01     5.8
 d= 0,ls=0.5,diis     6   -373.2767536753 -1.05D+00  5.47D-03  2.98D+01     6.7
 d= 0,ls=0.5,diis     7   -374.7684752907 -1.49D+00  4.09D-03  1.04D+01     7.5
 d= 0,ls=0.5,diis     8   -375.4428515225 -6.74D-01  3.19D-03  2.74D+00     8.5
 d= 0,ls=0.5,diis     9   -375.6927564755 -2.50D-01  1.82D-03  3.98D-01     9.3
 d= 0,ls=0.5,diis    10   -375.7492097917 -5.65D-02  1.09D-03  4.75D-02    10.2
  Resetting Diis
 d= 0,ls=0.5,diis    11   -375.7632050266 -1.40D-02  7.59D-04  1.05D-02    11.0
 d= 0,ls=0.5,diis    12   -375.7688967813 -5.69D-03  5.67D-04  6.09D-03    12.2
 d= 0,ls=0.5,diis    13   -375.7720092107 -3.11D-03  5.32D-04  2.99D-03    12.8
 d= 0,ls=0.5,diis    14   -375.7743473765 -2.34D-03  6.12D-04  2.81D-03    13.9
 d= 0,ls=0.5,diis    15   -375.7772119555 -2.86D-03  7.24D-04  3.44D-03    15.2
 d= 0,ls=0.5,diis    16   -375.7815723915 -4.36D-03  9.79D-04  6.24D-03    15.9
 d= 0,ls=0.5,diis    17   -375.7891741093 -7.60D-03  1.33D-03  1.44D-02    16.7
 d= 0,ls=0.5,diis    18   -375.8023805754 -1.32D-02  1.77D-03  3.82D-02    17.6
 d= 0,ls=0.5,diis    19   -375.8200107978 -1.76D-02  2.24D-03  1.17D-01    18.7
 d= 0,ls=0.5,diis    20   -375.8376983147 -1.77D-02  2.53D-03  3.05D-01    19.6
 d= 0,ls=0.5,diis    21   -375.8381123516 -4.14D-04  2.55D-03  7.09D-01    20.3
 d= 0,ls=0.5,diis    22   -375.8101753282  2.79D-02  2.31D-03  1.34D+00    21.1
 d= 0,ls=0.5,diis    23   -375.7631992195  4.70D-02  1.95D-03  2.03D+00    22.2
 d= 0,ls=0.5,diis    24   -375.7142190383  4.90D-02  1.59D-03  2.60D+00    22.8
 d= 0,ls=0.5,diis    25   -375.6906527632  2.36D-02  1.23D-03  2.89D+00    23.8
 d= 0,ls=0.5,diis    26   -375.6743292084  1.63D-02  9.42D-04  3.07D+00    24.6
 d= 0,ls=0.5,diis    27   -375.6655076176  8.82D-03  7.20D-04  3.17D+00    26.1
 d= 0,ls=0.5,diis    28   -375.6615866781  3.92D-03  6.04D-04  3.22D+00    27.4
 d= 0,ls=0.5,diis    29   -375.6431510287  1.84D-02  4.33D-04  3.37D+00    28.6
 d= 0,ls=0.5,diis    30   -375.6310263531  1.21D-02  2.17D-04  3.46D+00    29.5
 d= 0,ls=0.5,diis    31   -375.6255504411  5.48D-03  9.68D-04  3.52D+00    30.2
 d= 0,ls=0.5,diis    32   -375.6864967228 -6.09D-02  2.01D-03  3.01D+00    31.3
 d= 0,ls=0.5,diis    33   -375.8109245348 -1.24D-01  2.78D-03  2.01D+00    32.8
 d= 0,ls=0.5,diis    34   -375.9318397615 -1.21D-01  1.93D-03  1.10D+00    33.2
 d= 0,ls=0.5,diis    35   -376.0131541510 -8.13D-02  1.51D-03  4.56D-01    34.1
 d= 0,ls=0.5,diis    36   -376.0563523146 -4.32D-02  9.01D-04  1.44D-01    35.2
 d= 0,ls=0.5,diis    37   -376.0723325157 -1.60D-02  5.22D-04  3.76D-02    36.1
 d= 0,ls=0.5,diis    38   -376.0772260023 -4.89D-03  4.24D-04  1.48D-02    37.4
 d= 0,ls=0.5,diis    39   -376.0790393897 -1.81D-03  3.17D-04  1.08D-02    38.5
 d= 0,ls=0.5,diis    40   -376.0799181146 -8.79D-04  2.54D-04  1.00D-02    39.0
 d= 0,ls=0.5,diis    41   -376.0804792205 -5.61D-04  2.00D-04  9.10D-03    39.8
 d= 0,ls=0.5,diis    42   -376.0810198931 -5.41D-04  1.62D-04  6.76D-03    40.2
 d= 0,ls=0.5,diis    43   -376.0815455927 -5.26D-04  1.25D-04  3.43D-03    41.1
 d= 0,ls=0.5,diis    44   -376.0818718491 -3.26D-04  9.09D-05  1.40D-03    42.1
 d= 0,ls=0.5,diis    45   -376.0820359637 -1.64D-04  7.03D-05  5.65D-04    43.1
 d= 0,ls=0.5,diis    46   -376.0821103961 -7.44D-05  5.43D-05  3.14D-04    44.0
 d= 0,ls=0.5,diis    47   -376.0821508708 -4.05D-05  4.44D-05  2.10D-04    44.8
 d= 0,ls=0.5,diis    48   -376.0821742079 -2.33D-05  3.43D-05  1.55D-04    45.6
 d= 0,ls=0.5,diis    49   -376.0821895869 -1.54D-05  2.73D-05  1.15D-04    46.3
 d= 0,ls=0.5,diis    50   -376.0822008971 -1.13D-05  2.10D-05  7.67D-05    47.0
 d= 0,ls=0.5,diis    51   -376.0822082360 -7.34D-06  1.60D-05  5.07D-05    48.0
 d= 0,ls=0.5,diis    52   -376.0822129145 -4.68D-06  1.26D-05  3.26D-05    48.6
 d= 0,ls=0.5,diis    53   -376.0822159041 -2.99D-06  9.94D-06  2.14D-05    49.7
 d= 0,ls=0.5,diis    54   -376.0822177718 -1.87D-06  8.01D-06  1.44D-05    50.7
 d= 0,ls=0.5,diis    55   -376.0822189921 -1.22D-06  6.45D-06  9.65D-06    52.1
 d= 0,ls=0.5,diis    56   -376.0822198254 -8.33D-07  5.38D-06  6.38D-06    52.7


         Total DFT energy =     -376.082220391014
      One electron energy =    -1212.871355709626
           Coulomb energy =      545.347702244713
    Exchange-Corr. energy =      -46.773413494034
 Nuclear repulsion energy =      338.214846567933

 Numeric. integr. density =       64.000095433635

     Total iterative time =     51.8s



                  Occupations of the irreducible representations
                  ----------------------------------------------

                     irrep           alpha         beta
                     --------     --------     --------
                     a1                9.0          9.0
                     b1                8.0          8.0
                     b2                7.0          7.0
                     b3                8.0          8.0



                         DFT ENERGY GRADIENTS

    atom               coordinates                        gradient
                 x          y          z           x          y          z
   1 U       0.000000   0.000000   0.000000    0.000000   0.000000   0.000000
   2 O       0.000000   0.000000   3.350484    0.000000   0.000000   0.000743
   3 O       0.000000   0.000000  -3.350484    0.000000   0.000000  -0.000743
   4 I       0.000000  -5.719634   0.000000    0.000000   0.003902   0.000000
   5 I       0.000000   5.719634   0.000000    0.000000  -0.003902   0.000000
   6 O       4.380385   0.000000   0.000000    0.216364   0.000000   0.000000
   7 O      -4.380385   0.000000   0.000000   -0.216364   0.000000   0.000000
   8 H       5.022703  -1.414838   0.094486   -0.123798   0.221445  -0.015012
   9 H       5.022703   1.414838  -0.094486   -0.123798  -0.221445   0.015012
  10 H      -5.022703  -1.414838  -0.094486    0.123798   0.221445   0.015012
  11 H      -5.022703   1.414838   0.094486    0.123798  -0.221445  -0.015012

  no constraints, skipping    0.0000000000000000     

@ Step       Energy      Delta E   Gmax     Grms     Xrms     Xmax   Walltime
@ ---- ---------------- -------- -------- -------- -------- -------- --------
@    0    -376.08222039  0.0D+00  0.12392  0.03093  0.00000  0.00000     56.7
                                                                    

 Restricting large step in mode   12 eval= 5.0D-02 step= 3.9D-01 new= 3.0D-01
 Restricting large step in mode   18 eval= 9.5D-02 step= 4.8D-01 new= 3.0D-01
 Restricting large step in mode   22 eval= 2.6D-01 step= 1.4D+00 new= 3.0D-01
  no constraints, skipping    0.0000000000000000     
  no constraints, skipping    0.0000000000000000     
  no constraints, skipping    0.0000000000000000     
  no constraints, skipping    0.0000000000000000     
  no constraints, skipping    0.0000000000000000     
  no constraints, skipping    0.0000000000000000     
  no constraints, skipping    0.0000000000000000     
  no constraints, skipping    0.0000000000000000     

                                 NWChem DFT Module
                                 -----------------


                                 UO2I2(OH2)2 - DFT



  Caching 1-el integrals 
   Time after variat. SCF:     57.1
   Time prior to 1st pass:     57.2

           Memory utilization after 1st SCF pass: 
           Heap Space remaining (MW):       16.68            16676456
          Stack Space remaining (MW):       26.21            26213380

   convergence    iter        energy       DeltaE   RMS-Dens  Diis-err    time
 ---------------- ----- ----------------- --------- --------- ---------  ------
 d= 0,ls=0.0,diis     1   -376.1672538355 -7.10D+02  1.61D-03  7.82D-02    58.1
 d= 0,ls=0.0,diis     2   -376.1720083979 -4.75D-03  8.72D-04  3.61D-02    59.0
 d= 0,ls=0.0,diis     3   -376.1742273772 -2.22D-03  3.93D-04  8.95D-03    60.4
 d= 0,ls=0.0,diis     4   -376.1746095455 -3.82D-04  2.13D-04  3.66D-03    61.4
 d= 0,ls=0.0,diis     5   -376.1749650521 -3.56D-04  3.96D-05  2.93D-05    62.5
 d= 0,ls=0.0,diis     6   -376.1749678763 -2.82D-06  1.68D-05  4.92D-06    63.6
 d= 0,ls=0.0,diis     7   -376.1749686245 -7.48D-07  3.99D-06  3.35D-07    64.7


         Total DFT energy =     -376.174968624498
      One electron energy =    -1204.179382433150
           Coulomb energy =      541.132174957114
    Exchange-Corr. energy =      -46.619067883326
 Nuclear repulsion energy =      333.491306734864

 Numeric. integr. density =       64.000348371507

     Total iterative time =      7.6s



                  Occupations of the irreducible representations
                  ----------------------------------------------

                     irrep           alpha         beta
                     --------     --------     --------
                     a1                9.0          9.0
                     b1                8.0          8.0
                     b2                7.0          7.0
                     b3                8.0          8.0

 Line search: 
     step= 1.00 grad=-1.2D-01 hess= 3.2D-02 energy=   -376.174969 mode=downhill
 new step= 1.97                   predicted energy=   -376.204582
  no constraints, skipping    0.0000000000000000     
  no constraints, skipping    0.0000000000000000     
  no constraints, skipping    0.0000000000000000     
  no constraints, skipping    0.0000000000000000     
  no constraints, skipping    0.0000000000000000     
  no constraints, skipping    0.0000000000000000     
  no constraints, skipping    0.0000000000000000     
  no constraints, skipping    0.0000000000000000     

          --------
          Step   1
          --------

                                 NWChem DFT Module
                                 -----------------


                                 UO2I2(OH2)2 - DFT



  Caching 1-el integrals 
   Time after variat. SCF:     65.6
   Time prior to 1st pass:     65.7

           Memory utilization after 1st SCF pass: 
           Heap Space remaining (MW):       16.68            16676456
          Stack Space remaining (MW):       26.21            26213380

   convergence    iter        energy       DeltaE   RMS-Dens  Diis-err    time
 ---------------- ----- ----------------- --------- --------- ---------  ------
 d= 0,ls=0.0,diis     1   -376.2098694282 -7.05D+02  1.48D-03  5.91D-02    66.6
 d= 0,ls=0.0,diis     2   -376.2134811991 -3.61D-03  8.42D-04  3.12D-02    67.1
 d= 0,ls=0.0,diis     3   -376.2152388931 -1.76D-03  6.17D-04  9.65D-03    68.0
 d= 0,ls=0.0,diis     4   -376.2147165561  5.22D-04  4.01D-04  1.38D-02    68.7
 d= 0,ls=0.0,diis     5   -376.2161031292 -1.39D-03  2.15D-05  1.21D-05    69.7
 d= 0,ls=0.0,diis     6   -376.2161045209 -1.39D-06  5.65D-06  2.92D-07    70.9
 d= 0,ls=0.0,diis     7   -376.2161045926 -7.17D-08  1.98D-06  9.97D-09    71.5


         Total DFT energy =     -376.216104592628
      One electron energy =    -1196.291057964065
           Coulomb energy =      537.295586782887
    Exchange-Corr. energy =      -46.484909510264
 Nuclear repulsion energy =      329.264276098813

 Numeric. integr. density =       64.000432624230

     Total iterative time =      5.9s



                  Occupations of the irreducible representations
                  ----------------------------------------------

                     irrep           alpha         beta
                     --------     --------     --------
                     a1                9.0          9.0
                     b1                8.0          8.0
                     b2                7.0          7.0
                     b3                8.0          8.0



                         DFT ENERGY GRADIENTS

    atom               coordinates                        gradient
                 x          y          z           x          y          z
   1 U       0.000000   0.000000   0.000000    0.000000   0.000000   0.000000
   2 O       0.000000   0.000000   3.347871    0.000000   0.000000   0.002091
   3 O       0.000000   0.000000  -3.347871    0.000000   0.000000  -0.002091
   4 I       0.000000  -5.762297   0.000000    0.000000   0.001537   0.000000
   5 I       0.000000   5.762297   0.000000    0.000000  -0.001537   0.000000
   6 O       4.562003   0.000000   0.000000    0.063407   0.000000   0.000000
   7 O      -4.562003   0.000000   0.000000   -0.063407   0.000000   0.000000
   8 H       5.376765  -1.583713   0.109535   -0.033655   0.028521  -0.002128
   9 H       5.376765   1.583713  -0.109535   -0.033655  -0.028521   0.002128
  10 H      -5.376765  -1.583713  -0.109535    0.033655   0.028521   0.002128
  11 H      -5.376765   1.583713   0.109535    0.033655  -0.028521  -0.002128

  no constraints, skipping    0.0000000000000000     

  Step       Energy      Delta E   Gmax     Grms     Xrms     Xmax   Walltime
  ---- ---------------- -------- -------- -------- -------- -------- --------
@    1    -376.21610459 -1.3D-01  0.02142  0.00533  0.14421  0.35411     75.5
                                                                    

 Restricting large step in mode    9 eval= 3.9D-02 step= 4.9D-01 new= 3.0D-01
  no constraints, skipping    0.0000000000000000     
  no constraints, skipping    0.0000000000000000     
  no constraints, skipping    0.0000000000000000     
  no constraints, skipping    0.0000000000000000     
  no constraints, skipping    0.0000000000000000     
  no constraints, skipping    0.0000000000000000     
  no constraints, skipping    0.0000000000000000     
  no constraints, skipping    0.0000000000000000     

                                 NWChem DFT Module
                                 -----------------


                                 UO2I2(OH2)2 - DFT



  Caching 1-el integrals 
   Time after variat. SCF:     76.0
   Time prior to 1st pass:     76.0

           Memory utilization after 1st SCF pass: 
           Heap Space remaining (MW):       16.68            16676456
          Stack Space remaining (MW):       26.21            26213380

   convergence    iter        energy       DeltaE   RMS-Dens  Diis-err    time
 ---------------- ----- ----------------- --------- --------- ---------  ------
 d= 0,ls=0.0,diis     1   -376.2238251857 -7.05D+02  7.52D-04  1.07D-02    77.1
 d= 0,ls=0.0,diis     2   -376.2247606304 -9.35D-04  5.51D-04  5.84D-03    77.8
 d= 0,ls=0.0,diis     3   -376.2244507910  3.10D-04  5.24D-04  8.27D-03    79.0
 d= 0,ls=0.0,diis     4   -376.2247824548 -3.32D-04  2.36D-04  5.33D-03    80.4
 d= 0,ls=0.0,diis     5   -376.2253000765 -5.18D-04  1.32D-05  4.20D-06    81.5
 d= 0,ls=0.0,diis     6   -376.2253001137 -3.71D-08  1.05D-05  2.47D-06    83.0
 d= 0,ls=0.0,diis     7   -376.2253004866 -3.73D-07  2.55D-06  4.55D-08    84.5


         Total DFT energy =     -376.225300486585
      One electron energy =    -1194.692282457905
           Coulomb energy =      536.526102794994
    Exchange-Corr. energy =      -46.438208992378
 Nuclear repulsion energy =      328.379088168705

 Numeric. integr. density =       64.000330294905

     Total iterative time =      8.5s



                  Occupations of the irreducible representations
                  ----------------------------------------------

                     irrep           alpha         beta
                     --------     --------     --------
                     a1                9.0          9.0
                     b1                8.0          8.0
                     b2                7.0          7.0
                     b3                8.0          8.0

 Line search: 
     step= 1.00 grad=-1.2D-02 hess= 3.2D-03 energy=   -376.225300 mode=downhill
 new step= 1.95                   predicted energy=   -376.228162
  no constraints, skipping    0.0000000000000000     
  no constraints, skipping    0.0000000000000000     
  no constraints, skipping    0.0000000000000000     
  no constraints, skipping    0.0000000000000000     
  no constraints, skipping    0.0000000000000000     
  no constraints, skipping    0.0000000000000000     
  no constraints, skipping    0.0000000000000000     
  no constraints, skipping    0.0000000000000000     

          --------
          Step   2
          --------

                                 NWChem DFT Module
                                 -----------------


                                 UO2I2(OH2)2 - DFT



  Caching 1-el integrals 
   Time after variat. SCF:     85.1
   Time prior to 1st pass:     85.1

           Memory utilization after 1st SCF pass: 
           Heap Space remaining (MW):       16.68            16676456
          Stack Space remaining (MW):       26.21            26213380

   convergence    iter        energy       DeltaE   RMS-Dens  Diis-err    time
 ---------------- ----- ----------------- --------- --------- ---------  ------
 d= 0,ls=0.0,diis     1   -376.2271002229 -7.04D+02  7.07D-04  8.98D-03    86.2
 d= 0,ls=0.0,diis     2   -376.2278796154 -7.79D-04  5.12D-04  5.37D-03    86.7
 d= 0,ls=0.0,diis     3   -376.2276703411  2.09D-04  4.88D-04  6.89D-03    87.2
 d= 0,ls=0.0,diis     4   -376.2279072516 -2.37D-04  2.26D-04  4.83D-03    87.9
 d= 0,ls=0.0,diis     5   -376.2283781360 -4.71D-04  1.24D-05  3.84D-06    89.1
 d= 0,ls=0.0,diis     6   -376.2283781821 -4.61D-08  9.85D-06  2.17D-06    90.2


         Total DFT energy =     -376.228378182129
      One electron energy =    -1193.268322524146
           Coulomb energy =      535.845473342362
    Exchange-Corr. energy =      -46.395248769530
 Nuclear repulsion energy =      327.589719769186

 Numeric. integr. density =       64.000192567614

     Total iterative time =      5.0s



                  Occupations of the irreducible representations
                  ----------------------------------------------

                     irrep           alpha         beta
                     --------     --------     --------
                     a1                9.0          9.0
                     b1                8.0          8.0
                     b2                7.0          7.0
                     b3                8.0          8.0



                         DFT ENERGY GRADIENTS

    atom               coordinates                        gradient
                 x          y          z           x          y          z
   1 U       0.000000   0.000000   0.000000    0.000000   0.000000   0.000000
   2 O       0.000000   0.000000   3.338596    0.000000   0.000000  -0.000946
   3 O       0.000000   0.000000  -3.338596    0.000000   0.000000   0.000946
   4 I       0.000000  -5.790300   0.000000    0.000000   0.000197   0.000000
   5 I       0.000000   5.790300   0.000000    0.000000  -0.000197   0.000000
   6 O       4.560205   0.000000   0.000000    0.004462   0.000000   0.000000
   7 O      -4.560205   0.000000   0.000000   -0.004462   0.000000   0.000000
   8 H       5.531690  -1.609788   0.114585   -0.003468  -0.011161   0.000633
   9 H       5.531690   1.609788  -0.114585   -0.003468   0.011161  -0.000633
  10 H      -5.531690  -1.609788  -0.114585    0.003468  -0.011161  -0.000633
  11 H      -5.531690   1.609788   0.114585    0.003468   0.011161   0.000633

  no constraints, skipping    0.0000000000000000     

  Step       Energy      Delta E   Gmax     Grms     Xrms     Xmax   Walltime
  ---- ---------------- -------- -------- -------- -------- -------- --------
@    2    -376.22837818 -1.2D-02  0.00453  0.00129  0.05522  0.15498     93.7
                                              ok                    

  no constraints, skipping    0.0000000000000000     
  no constraints, skipping    0.0000000000000000     
  no constraints, skipping    0.0000000000000000     
  no constraints, skipping    0.0000000000000000     
  no constraints, skipping    0.0000000000000000     
  no constraints, skipping    0.0000000000000000     
  no constraints, skipping    0.0000000000000000     
  no constraints, skipping    0.0000000000000000     

                                 NWChem DFT Module
                                 -----------------


                                 UO2I2(OH2)2 - DFT



  Caching 1-el integrals 
   Time after variat. SCF:     94.1
   Time prior to 1st pass:     94.1

           Memory utilization after 1st SCF pass: 
           Heap Space remaining (MW):       16.68            16676456
          Stack Space remaining (MW):       26.21            26213380

   convergence    iter        energy       DeltaE   RMS-Dens  Diis-err    time
 ---------------- ----- ----------------- --------- --------- ---------  ------
 d= 0,ls=0.0,diis     1   -376.2294780920 -7.03D+02  2.70D-04  7.63D-04    95.1
 d= 0,ls=0.0,diis     2   -376.2296048211 -1.27D-04  1.71D-04  6.15D-05    95.6
 d= 0,ls=0.0,diis     3   -376.2294884967  1.16D-04  1.17D-04  1.13D-03    96.2
 d= 0,ls=0.0,diis     4   -376.2296128138 -1.24D-04  2.38D-05  9.30D-06    97.0
 d= 0,ls=0.0,diis     5   -376.2296141648 -1.35D-06  5.51D-06  8.87D-07    97.7
 d= 0,ls=0.0,diis     6   -376.2296142748 -1.10D-07  1.20D-06  5.05D-08    98.7


         Total DFT energy =     -376.229614274793
      One electron energy =    -1192.520718434477
           Coulomb energy =      535.469621717464
    Exchange-Corr. energy =      -46.392260338416
 Nuclear repulsion energy =      327.213742780635

 Numeric. integr. density =       64.000151047369

     Total iterative time =      4.6s



                  Occupations of the irreducible representations
                  ----------------------------------------------

                     irrep           alpha         beta
                     --------     --------     --------
                     a1                9.0          9.0
                     b1                8.0          8.0
                     b2                7.0          7.0
                     b3                8.0          8.0

 Line search: 
     step= 1.00 grad=-1.5D-03 hess= 3.1D-04 energy=   -376.229614 mode=downhill
 new step= 2.49                   predicted energy=   -376.230303
  no constraints, skipping    0.0000000000000000     
  no constraints, skipping    0.0000000000000000     
  no constraints, skipping    0.0000000000000000     
  no constraints, skipping    0.0000000000000000     
  no constraints, skipping    0.0000000000000000     
  no constraints, skipping    0.0000000000000000     
  no constraints, skipping    0.0000000000000000     
  no constraints, skipping    0.0000000000000000     

          --------
          Step   3
          --------

                                 NWChem DFT Module
                                 -----------------


                                 UO2I2(OH2)2 - DFT



  Caching 1-el integrals 
   Time after variat. SCF:     99.1
   Time prior to 1st pass:     99.1

           Memory utilization after 1st SCF pass: 
           Heap Space remaining (MW):       16.68            16676456
          Stack Space remaining (MW):       26.21            26213380

   convergence    iter        energy       DeltaE   RMS-Dens  Diis-err    time
 ---------------- ----- ----------------- --------- --------- ---------  ------
 d= 0,ls=0.0,diis     1   -376.2299483997 -7.03D+02  3.98D-04  1.70D-03   100.1
 d= 0,ls=0.0,diis     2   -376.2302229953 -2.75D-04  2.62D-04  1.61D-04   100.5
 d= 0,ls=0.0,diis     3   -376.2299502835  2.73D-04  1.85D-04  2.66D-03   100.9
 d= 0,ls=0.0,diis     4   -376.2302425757 -2.92D-04  3.34D-05  3.44D-05   101.2
 d= 0,ls=0.0,diis     5   -376.2302464119 -3.84D-06  8.05D-06  1.73D-06   101.5
 d= 0,ls=0.0,diis     6   -376.2302465796 -1.68D-07  2.85D-06  2.93D-07   102.0


         Total DFT energy =     -376.230246579592
      One electron energy =    -1191.407009136974
           Coulomb energy =      534.916868483115
    Exchange-Corr. energy =      -46.387758306316
 Nuclear repulsion energy =      326.647652380582

 Numeric. integr. density =       64.000092164854

     Total iterative time =      2.9s



                  Occupations of the irreducible representations
                  ----------------------------------------------

                     irrep           alpha         beta
                     --------     --------     --------
                     a1                9.0          9.0
                     b1                8.0          8.0
                     b2                7.0          7.0
                     b3                8.0          8.0



                         DFT ENERGY GRADIENTS

    atom               coordinates                        gradient
                 x          y          z           x          y          z
   1 U       0.000000   0.000000   0.000000    0.000000   0.000000   0.000000
   2 O       0.000000   0.000000   3.342081    0.000000   0.000000   0.001204
   3 O       0.000000   0.000000  -3.342081    0.000000   0.000000  -0.001204
   4 I       0.000000  -5.798684   0.000000    0.000000  -0.000492   0.000000
   5 I       0.000000   5.798684   0.000000    0.000000   0.000492   0.000000
   6 O       4.576081   0.000000   0.000000   -0.009032   0.000000   0.000000
   7 O      -4.576081   0.000000   0.000000    0.009032  -0.000000   0.000000
   8 H       5.640627  -1.552712   0.112983    0.003930  -0.005133   0.000165
   9 H       5.640627   1.552712  -0.112983    0.003930   0.005133  -0.000165
  10 H      -5.640627  -1.552712  -0.112983   -0.003930  -0.005133  -0.000165
  11 H      -5.640627   1.552712   0.112983   -0.003930   0.005133   0.000165

  no constraints, skipping    0.0000000000000000     

  Step       Energy      Delta E   Gmax     Grms     Xrms     Xmax   Walltime
  ---- ---------------- -------- -------- -------- -------- -------- --------
@    3    -376.23024658 -1.9D-03  0.00381  0.00091  0.04302  0.10904    105.7
                                     ok       ok                    

  no constraints, skipping    0.0000000000000000     
  no constraints, skipping    0.0000000000000000     
  no constraints, skipping    0.0000000000000000     
  no constraints, skipping    0.0000000000000000     
  no constraints, skipping    0.0000000000000000     
  no constraints, skipping    0.0000000000000000     
  no constraints, skipping    0.0000000000000000     
  no constraints, skipping    0.0000000000000000     

                                 NWChem DFT Module
                                 -----------------


                                 UO2I2(OH2)2 - DFT



  Caching 1-el integrals 
   Time after variat. SCF:    106.1
   Time prior to 1st pass:    106.1

           Memory utilization after 1st SCF pass: 
           Heap Space remaining (MW):       16.68            16676456
          Stack Space remaining (MW):       26.21            26213380

   convergence    iter        energy       DeltaE   RMS-Dens  Diis-err    time
 ---------------- ----- ----------------- --------- --------- ---------  ------
 d= 0,ls=0.0,diis     1   -376.2303978937 -7.03D+02  1.52D-04  6.02D-04   107.2
 d= 0,ls=0.0,diis     2   -376.2304332365 -3.53D-05  1.48D-04  3.52D-04   107.6
 d= 0,ls=0.0,diis     3   -376.2303981741  3.51D-05  1.33D-04  6.55D-04   108.3
 d= 0,ls=0.0,diis     4   -376.2304421961 -4.40D-05  4.96D-05  2.57D-04   109.1
 d= 0,ls=0.0,diis     5   -376.2304666439 -2.44D-05  3.78D-06  8.55D-08   109.9
 d= 0,ls=0.0,diis     6   -376.2304666304  1.36D-08  2.39D-06  1.63D-07   110.7


         Total DFT energy =     -376.230466630367
      One electron energy =    -1191.515823306472
           Coulomb energy =      534.965400605753
    Exchange-Corr. energy =      -46.400079503277
 Nuclear repulsion energy =      326.720035573629

 Numeric. integr. density =       64.000088833628

     Total iterative time =      4.6s



                  Occupations of the irreducible representations
                  ----------------------------------------------

                     irrep           alpha         beta
                     --------     --------     --------
                     a1                9.0          9.0
                     b1                8.0          8.0
                     b2                7.0          7.0
                     b3                8.0          8.0

 Line search: 
     step= 1.00 grad=-3.7D-04 hess= 1.5D-04 energy=   -376.230467 mode=downhill
 new step= 1.22                   predicted energy=   -376.230474
  no constraints, skipping    0.0000000000000000     
  no constraints, skipping    0.0000000000000000     
  no constraints, skipping    0.0000000000000000     
  no constraints, skipping    0.0000000000000000     
  no constraints, skipping    0.0000000000000000     
  no constraints, skipping    0.0000000000000000     
  no constraints, skipping    0.0000000000000000     
  no constraints, skipping    0.0000000000000000     

          --------
          Step   4
          --------

                                 NWChem DFT Module
                                 -----------------


                                 UO2I2(OH2)2 - DFT



  Caching 1-el integrals 
   Time after variat. SCF:    111.1
   Time prior to 1st pass:    111.1

           Memory utilization after 1st SCF pass: 
           Heap Space remaining (MW):       16.68            16676456
          Stack Space remaining (MW):       26.21            26213380

   convergence    iter        energy       DeltaE   RMS-Dens  Diis-err    time
 ---------------- ----- ----------------- --------- --------- ---------  ------
 d= 0,ls=0.0,diis     1   -376.2304702204 -7.03D+02  3.44D-05  3.09D-05   112.1
 d= 0,ls=0.0,diis     2   -376.2304720154 -1.79D-06  3.36D-05  1.82D-05   112.5
 d= 0,ls=0.0,diis     3   -376.2304701948  1.82D-06  3.03D-05  3.40D-05   112.8
 d= 0,ls=0.0,diis     4   -376.2304725047 -2.31D-06  1.12D-05  1.31D-05   113.3
 d= 0,ls=0.0,diis     5   -376.2304737466 -1.24D-06  8.64D-07  4.94D-09   113.8
 d= 0,ls=0.0,diis     6   -376.2304737458  7.23D-10  5.51D-07  8.79D-09   114.3


         Total DFT energy =     -376.230473745829
      One electron energy =    -1191.543885510393
           Coulomb energy =      534.979623194344
    Exchange-Corr. energy =      -46.402950202279
 Nuclear repulsion energy =      326.736738772498

 Numeric. integr. density =       64.000088856357

     Total iterative time =      3.2s



                  Occupations of the irreducible representations
                  ----------------------------------------------

                     irrep           alpha         beta
                     --------     --------     --------
                     a1                9.0          9.0
                     b1                8.0          8.0
                     b2                7.0          7.0
                     b3                8.0          8.0



                         DFT ENERGY GRADIENTS

    atom               coordinates                        gradient
                 x          y          z           x          y          z
   1 U       0.000000   0.000000   0.000000    0.000000   0.000000   0.000000
   2 O       0.000000   0.000000   3.340404    0.000000   0.000000   0.000432
   3 O       0.000000   0.000000  -3.340404   -0.000000   0.000000  -0.000432
   4 I       0.000000  -5.793385   0.000000    0.000000  -0.000205   0.000000
   5 I       0.000000   5.793385   0.000000    0.000000   0.000205   0.000000
   6 O       4.586186   0.000000   0.000000   -0.000077   0.000000   0.000000
   7 O      -4.586186   0.000000   0.000000    0.000077  -0.000000   0.000000
   8 H       5.634291  -1.544719   0.113457   -0.000217   0.000144  -0.000225
   9 H       5.634291   1.544719  -0.113457   -0.000217  -0.000144   0.000225
  10 H      -5.634291  -1.544719  -0.113457    0.000217   0.000144   0.000225
  11 H      -5.634291   1.544719   0.113457    0.000217  -0.000144  -0.000225

  no constraints, skipping    0.0000000000000000     

  Step       Energy      Delta E   Gmax     Grms     Xrms     Xmax   Walltime
  ---- ---------------- -------- -------- -------- -------- -------- --------
@    4    -376.23047375 -2.3D-04  0.00043  0.00007  0.00455  0.01008    118.4
                                     ok       ok       ok       ok  


      ----------------------
      Optimization converged
      ----------------------


  Step       Energy      Delta E   Gmax     Grms     Xrms     Xmax   Walltime
  ---- ---------------- -------- -------- -------- -------- -------- --------
@    4    -376.23047375 -2.3D-04  0.00043  0.00007  0.00455  0.01008    118.4
                                     ok       ok       ok       ok  



                         Geometry "geometry" -> "geometry"
                         ---------------------------------

 Output coordinates in angstroms (scale by  1.889725989 to convert to a.u.)

  No.       Tag          Charge          X              Y              Z
 ---- ---------------- ---------- -------------- -------------- --------------
    1 U                   92.0000     0.00000000     0.00000000     0.00000000
    2 O                    8.0000     0.00000000     0.00000000     1.76766588
    3 O                    8.0000     0.00000000     0.00000000    -1.76766588
    4 I                   53.0000     0.00000000    -3.06572729     0.00000000
    5 I                   53.0000     0.00000000     3.06572729     0.00000000
    6 O                    8.0000     2.42690549     0.00000000     0.00000000
    7 O                    8.0000    -2.42690549     0.00000000     0.00000000
    8 H                    1.0000     2.98153869    -0.81743030     0.06003908
    9 H                    1.0000     2.98153869     0.81743030    -0.06003908
   10 H                    1.0000    -2.98153869    -0.81743030    -0.06003908
   11 H                    1.0000    -2.98153869     0.81743030     0.06003908

      Atomic Mass 
      ----------- 

      U                238.050800
      O                 15.994910
      I                126.900400
      H                  1.007825


 Effective nuclear repulsion energy (a.u.)    3378.8200639696

            Nuclear Dipole moment (a.u.) 
            ----------------------------
        X                 Y               Z
 ---------------- ---------------- ----------------
     0.0000000000     0.0000000000     0.0000000000

      Symmetry information
      --------------------

 Group name             D2        
 Group number             11
 Group order               4
 No. of unique centers     5

      Symmetry unique atoms

     1    2    4    6    8


                Final and change from initial internal coordinates
                --------------------------------------------------



                                Z-matrix (autoz)
                                -------- 

 Units are Angstrom for bonds and degrees for angles

      Type          Name      I     J     K     L     M      Value       Change
      ----------- --------  ----- ----- ----- ----- ----- ---------- ----------
    1 Stretch                  1     2                       1.76767   -0.00533
    2 Stretch                  1     3                       1.76767   -0.00533
    3 Stretch                  1     4                       3.06573    0.03903
    4 Stretch                  1     5                       3.06573    0.03903
    5 Stretch                  1     6                       2.42691    0.10891
    6 Stretch                  1     7                       2.42691    0.10891
    7 Stretch                  1     8                       3.09215    0.33036
    8 Stretch                  1     9                       3.09215    0.33036
    9 Stretch                  1    10                       3.09215    0.33036
   10 Stretch                  1    11                       3.09215    0.33036
   11 Stretch                  6     8                       0.98965    0.16589
   12 Stretch                  6     9                       0.98965    0.16589
   13 Stretch                  7    10                       0.98965    0.16589
   14 Stretch                  7    11                       0.98965    0.16589
   15 Bend                     1     6     8               124.08564    9.71616
   16 Bend                     1     6     9               124.08564    9.71616
   17 Bend                     1     7    10               124.08564    9.71616
   18 Bend                     1     7    11               124.08564    9.71616
   19 Bend                     1     8     6                40.54331   -9.32199
   20 Bend                     1     9     6                40.54331   -9.32199
   21 Bend                     1    10     7                40.54331   -9.32199
   22 Bend                     1    11     7                40.54331   -9.32199
   23 Bend                     2     1     4                90.00000    0.00000
   24 Bend                     2     1     5                90.00000    0.00000
   25 Bend                     2     1     6                90.00000    0.00000
   26 Bend                     2     1     7                90.00000    0.00000
   27 Bend                     2     1     8                88.88744   -0.07521
   28 Bend                     2     1     9                91.11256    0.07521
   29 Bend                     2     1    10                91.11256    0.07521
   30 Bend                     2     1    11                88.88744   -0.07521
   31 Bend                     3     1     4                90.00000    0.00000
   32 Bend                     3     1     5                90.00000    0.00000
   33 Bend                     3     1     6                90.00000    0.00000
   34 Bend                     3     1     7                90.00000    0.00000
   35 Bend                     3     1     8                91.11256    0.07521
   36 Bend                     3     1     9                88.88744   -0.07521
   37 Bend                     3     1    10                88.88744   -0.07521
   38 Bend                     3     1    11                91.11256    0.07521
   39 Bend                     4     1     6                90.00000    0.00000
   40 Bend                     4     1     7                90.00000    0.00000
   41 Bend                     4     1     8                74.67126    0.40053
   42 Bend                     4     1     9               105.32874   -0.40053
   43 Bend                     4     1    10                74.67126    0.40053
   44 Bend                     4     1    11               105.32874   -0.40053
   45 Bend                     5     1     6                90.00000    0.00000
   46 Bend                     5     1     7                90.00000    0.00000
   47 Bend                     5     1     8               105.32874   -0.40053
   48 Bend                     5     1     9                74.67126    0.40053
   49 Bend                     5     1    10               105.32874   -0.40053
   50 Bend                     5     1    11                74.67126    0.40053
   51 Bend                     6     1     8                15.37105   -0.39417
   52 Bend                     6     1     9                15.37105   -0.39417
   53 Bend                     6     1    10               164.62895    0.39417
   54 Bend                     6     1    11               164.62895    0.39417
   55 Bend                     7     1     8               164.62895    0.39417
   56 Bend                     7     1     9               164.62895    0.39417
   57 Bend                     7     1    10                15.37105   -0.39417
   58 Bend                     7     1    11                15.37105   -0.39417
   59 Bend                     8     1     9                30.74211   -0.78834
   60 Bend                     8     1    10               149.34251    0.80106
   61 Bend                     8     6     9               111.82872  -19.43233
   62 Bend                     9     1    11               149.34251    0.80106
   63 Bend                    10     1    11                30.74211   -0.78834
   64 Bend                    10     7    11               111.82872  -19.43233
   65 Torsion                  1     8     6     9        -180.00000    0.00000
   66 Torsion                  1     9     6     8        -180.00000    0.00000
   67 Torsion                  1    10     7    11        -180.00000    0.00000
   68 Torsion                  1    11     7    10        -180.00000    0.00000
   69 Torsion                  2     1     6     8          85.79925   -0.38007
   70 Torsion                  2     1     6     9         -94.20075   -0.38007
   71 Torsion                  2     1     7    10         -94.20075   -0.38007
   72 Torsion                  2     1     7    11          85.79925   -0.38007
   73 Torsion                  2     1     8     6         -94.05100   -0.37364
   74 Torsion                  2     1     9     6          85.94900   -0.37364
   75 Torsion                  2     1    10     7          85.94900   -0.37364
   76 Torsion                  2     1    11     7         -94.05100   -0.37364
   77 Torsion                  3     1     6     8         -94.20075   -0.38007
   78 Torsion                  3     1     6     9          85.79925   -0.38007
   79 Torsion                  3     1     7    10          85.79925   -0.38007
   80 Torsion                  3     1     7    11         -94.20075   -0.38007
   81 Torsion                  3     1     8     6          85.94900   -0.37364
   82 Torsion                  3     1     9     6         -94.05100   -0.37364
   83 Torsion                  3     1    10     7         -94.05100   -0.37364
   84 Torsion                  3     1    11     7          85.94900   -0.37364
   85 Torsion                  4     1     6     8          -4.20075   -0.38007
   86 Torsion                  4     1     6     9         175.79925   -0.38007
   87 Torsion                  4     1     7    10          -4.20075   -0.38007
   88 Torsion                  4     1     7    11         175.79925   -0.38007
   89 Torsion                  4     1     8     6         175.64400   -0.38645
   90 Torsion                  4     1     9     6          -4.35600   -0.38645
   91 Torsion                  4     1    10     7         175.64400   -0.38645
   92 Torsion                  4     1    11     7          -4.35600   -0.38645
   93 Torsion                  5     1     6     8         175.79925   -0.38007
   94 Torsion                  5     1     6     9          -4.20075   -0.38007
   95 Torsion                  5     1     7    10         175.79925   -0.38007
   96 Torsion                  5     1     7    11          -4.20075   -0.38007
   97 Torsion                  5     1     8     6          -4.35600   -0.38645
   98 Torsion                  5     1     9     6         175.64400   -0.38645
   99 Torsion                  5     1    10     7          -4.35600   -0.38645
  100 Torsion                  5     1    11     7         175.64400   -0.38645
  101 Torsion                  6     1    10     7         180.00000    0.00000
  102 Torsion                  6     1    11     7         180.00000    0.00000
  103 Torsion                  6     8     1     7         180.00000    0.00000
  104 Torsion                  6     8     1     9          -0.00000   -0.00000
  105 Torsion                  6     8     1    10         175.64400   -0.38645
  106 Torsion                  6     8    11     7         169.30948   -1.59333
  107 Torsion                  8     6     1    11         171.59850   -0.76014
  108 Torsion                  6     9     1     7         180.00000    0.00000
  109 Torsion                  6     9     1     8          -0.00000   -0.00000
  110 Torsion                  6     9    10     7         169.30948   -1.59333
  111 Torsion                  9     6     1    10         171.59850   -0.76014
  112 Torsion                  6     9     1    11         175.64400   -0.38645
  113 Torsion                  7    10     1     8         175.64400   -0.38645
  114 Torsion                  9     1     7    10         171.59850   -0.76014
  115 Torsion                  7    10     1    11          -0.00000   -0.00000
  116 Torsion                  8     1     7    11         171.59850   -0.76014
  117 Torsion                  7    11     1     9         175.64400   -0.38645
  118 Torsion                  7    11     1    10          -0.00000   -0.00000
  119 Torsion                  8     1     6     9         180.00000    0.00000
  120 Torsion                  8     1     7    10          -8.40150   -0.76014
  121 Torsion                  8     6     7    10          -8.40150   -0.76014
  122 Torsion                  8     6     7    11         171.59850   -0.76014
  123 Torsion                  8     6     1     9         180.00000    0.00000
  124 Torsion                  8     6     1    10          -8.40150   -0.76014
  125 Torsion                  9     1     7    11          -8.40150   -0.76014
  126 Torsion                  9     6     7    10         171.59850   -0.76014
  127 Torsion                  9     6     7    11          -8.40150   -0.76014
  128 Torsion                  9     6     1    11          -8.40150   -0.76014
  129 Torsion                 10     1     7    11         180.00000    0.00000
  130 Torsion                 10     7     1    11         180.00000    0.00000



                                NWChem Input Module
                                -------------------




                                     CITATION
                                     --------
                Please cite the following reference when publishing
                           results obtained with NWChem:

          E. Apra, E. J. Bylaska, W. A. de Jong, N. Govind, K. Kowalski,
       T. P. Straatsma, M. Valiev, H. J. J. van Dam, Y. Alexeev, J. Anchell,
       V. Anisimov, F. W. Aquino, R. Atta-Fynn, J. Autschbach, N. P. Bauman,
     J. C. Becca, D. E. Bernholdt, K. Bhaskaran-Nair, S. Bogatko, P. Borowski,
         J. Boschen, J. Brabec, A. Bruner, E. Cauet, Y. Chen, G. N. Chuev,
      C. J. Cramer, J. Daily, M. J. O. Deegan, T. H. Dunning Jr., M. Dupuis,
   K. G. Dyall, G. I. Fann, S. A. Fischer, A. Fonari, H. Fruchtl, L. Gagliardi,
      J. Garza, N. Gawande, S. Ghosh, K. Glaesemann, A. W. Gotz, J. Hammond,
       V. Helms, E. D. Hermes, K. Hirao, S. Hirata, M. Jacquelin, L. Jensen,
   B. G. Johnson, H. Jonsson, R. A. Kendall, M. Klemm, R. Kobayashi, V. Konkov,
      S. Krishnamoorthy, M. Krishnan, Z. Lin, R. D. Lins, R. J. Littlefield,
      A. J. Logsdail, K. Lopata, W. Ma, A. V. Marenich, J. Martin del Campo,
   D. Mejia-Rodriguez, J. E. Moore, J. M. Mullin, T. Nakajima, D. R. Nascimento,
    J. A. Nichols, P. J. Nichols, J. Nieplocha, A. Otero-de-la-Roza, B. Palmer,
    A. Panyala, T. Pirojsirikul, B. Peng, R. Peverati, J. Pittner, L. Pollack,
   R. M. Richard, P. Sadayappan, G. C. Schatz, W. A. Shelton, D. W. Silverstein,
   D. M. A. Smith, T. A. Soares, D. Song, M. Swart, H. L. Taylor, G. S. Thomas,
            V. Tipparaju, D. G. Truhlar, K. Tsemekhman, T. Van Voorhis,
      A. Vazquez-Mayagoitia, P. Verma, O. Villa, A. Vishnu, K. D. Vogiatzis,
        D. Wang, J. H. Weare, M. J. Williamson, T. L. Windus, K. Wolinski,
        A. T. Wong, Q. Wu, C. Yang, Q. Yu, M. Zacharias, Z. Zhang, Y. Zhao,
                                and R. J. Harrison
                        "NWChem: Past, present, and future
                         J. Chem. Phys. 152, 184102 (2020)
                               doi:10.1063/5.0004997

                                      AUTHORS
                                      -------
  E. Apra, E. J. Bylaska, N. Govind, K. Kowalski, M. Valiev, D. Mejia-Rodriguez,
       A. Kunitsa, N. P. Bauman, A. Panyala, W. A. de Jong, T. P. Straatsma,
   H. J. J. van Dam, D. Wang, T. L. Windus, J. Hammond, J. Autschbach, A. Woods,
    K. Bhaskaran-Nair, J. Brabec, K. Lopata, S. A. Fischer, S. Krishnamoorthy,
     M. Jacquelin, W. Ma, M. Klemm, O. Villa, Y. Chen, V. Anisimov, F. Aquino,
     S. Hirata, M. T. Hackler, E. Hermes, L. Jensen, J. E. Moore, J. C. Becca,
      V. Konjkov, T. Risthaus, M. Malagoli, A. Marenich, A. Otero-de-la-Roza,
        J. Mullin, P. Nichols, R. Peverati, J. Pittner, Y. Zhao, P.-D. Fan,
        A. Fonari, M. J. Williamson, R. J. Harrison, J. R. Rehr, M. Dupuis,
     D. Silverstein, D. M. A. Smith, J. Nieplocha, V. Tipparaju, M. Krishnan,
     B. E. Van Kuiken, A. Vazquez-Mayagoitia, M. Swart, Q. Wu, T. Van Voorhis,
     A. A. Auer, M. Nooijen, L. D. Crosby, E. Brown, G. Cisneros, G. I. Fann,
   H. Fruchtl, J. Garza, K. Hirao, R. A. Kendall, J. A. Nichols, K. Tsemekhman,
    K. Wolinski, J. Anchell, D. E. Bernholdt, P. Borowski, T. Clark, D. Clerc,
   H. Dachsel, M. J. O. Deegan, K. Dyall, D. Elwood, E. Glendening, M. Gutowski,
   A. C. Hess, J. Jaffe, B. G. Johnson, J. Ju, R. Kobayashi, R. Kutteh, Z. Lin,
   R. Littlefield, X. Long, B. Meng, T. Nakajima, S. Niu, L. Pollack, M. Rosing,
   K. Glaesemann, G. Sandrone, M. Stave, H. Taylor, G. Thomas, J. H. van Lenthe,
                               A. T. Wong, Z. Zhang.

 Total times  cpu:      102.6s     wall:      118.4s
[0] ARMCI Warning: Freed 1 leaked allocations
