    11
 geometry
 U                     0.00000000     0.00000000     0.00000000
 O                     0.00000000     0.00000000     1.76670891
 O                     0.00000000     0.00000000    -1.76670891
 I                     0.00000000    -3.06409524     0.00000000
 I                     0.00000000     3.06409524     0.00000000
 O                     2.41315677     0.00000000     0.00000000
 O                    -2.41315677     0.00000000     0.00000000
 H                     2.92724470    -0.85186323     0.06063600
 H                     2.92724470     0.85186323    -0.06063600
 H                    -2.92724470    -0.85186323    -0.06063600
 H                    -2.92724470     0.85186323     0.06063600
