    11
 geometry
 U                     0.00000000     0.00000000     0.00000000
 O                     0.00000000     0.00000000     1.76855310
 O                     0.00000000     0.00000000    -1.76855310
 I                     0.00000000    -3.06853189     0.00000000
 I                     0.00000000     3.06853189     0.00000000
 O                     2.42155806     0.00000000     0.00000000
 O                    -2.42155806     0.00000000     0.00000000
 H                     2.98489126    -0.82165988     0.05978790
 H                     2.98489126     0.82165988    -0.05978790
 H                    -2.98489126    -0.82165988    -0.05978790
 H                    -2.98489126     0.82165988     0.05978790
