    11
 geometry
 U                     0.00000000     0.00000000     0.00000000
 O                     0.00000000     0.00000000     1.76766588
 O                     0.00000000     0.00000000    -1.76766588
 I                     0.00000000    -3.06572729     0.00000000
 I                     0.00000000     3.06572729     0.00000000
 O                     2.42690549     0.00000000     0.00000000
 O                    -2.42690549     0.00000000     0.00000000
 H                     2.98153869    -0.81743030     0.06003908
 H                     2.98153869     0.81743030    -0.06003908
 H                    -2.98153869    -0.81743030    -0.06003908
 H                    -2.98153869     0.81743030     0.06003908
