    11
 geometry
 U                     0.00000000     0.00000000     0.00000000
 O                     0.00000000     0.00000000     1.77161728
 O                     0.00000000     0.00000000    -1.77161728
 I                     0.00000000    -3.04927651     0.00000000
 I                     0.00000000     3.04927651     0.00000000
 O                     2.41410816     0.00000000     0.00000000
 O                    -2.41410816     0.00000000     0.00000000
 H                     2.84526176    -0.83806478     0.05796341
 H                     2.84526176     0.83806478    -0.05796341
 H                    -2.84526176    -0.83806478    -0.05796341
 H                    -2.84526176     0.83806478     0.05796341
