    11
 geometry
 U                     0.00000000     0.00000000     0.00000000
 O                     0.00000000     0.00000000     1.77300000
 O                     0.00000000     0.00000000    -1.77300000
 I                     0.00000000    -3.02670000     0.00000000
 I                     0.00000000     3.02670000     0.00000000
 O                     2.31800000     0.00000000     0.00000000
 O                    -2.31800000     0.00000000     0.00000000
 H                     2.65790000    -0.74870000     0.05000000
 H                     2.65790000     0.74870000    -0.05000000
 H                    -2.65790000    -0.74870000    -0.05000000
 H                    -2.65790000     0.74870000     0.05000000
