&CONTROL
   calculation      = 'scf'
   tstress          = .true.
   tprnfor          = .true.
   outdir           = './tmp'
   prefix           = 'hc8_80'
   pseudo_dir       = '/home/danil/home/Molecular-and-Materials-Modeling-2026-Challenges/pseudopotentials'
/
&SYSTEM
   ibrav            = 0
   ecutwfc          = 80
   occupations      = 'smearing'
   degauss          = 0.01
   smearing         = 'gauss'
   nspin            = 2
   vdw_corr         = 'DFT-D3'
   dftd3_version    = 4
   starting_magnetization(1) = 0.0
   starting_magnetization(2) = 1.0
   ntyp             = 2
   nat              = 9
/
&ELECTRONS
   conv_thr         = 1e-10
/
&IONS
/
&CELL
/
&FCP
/
&RISM
/
ATOMIC_SPECIES
C  12.011 C.upf
H  1.008 H.upf

K_POINTS automatic
1 1 1  0 0 0

CELL_PARAMETERS angstrom
4.93264818190000 0.00000000000000 0.00000000000000
-2.46632465980000 4.27179830510000 0.00000000000000
0.00000000000000 0.00000000000000 15.00000000000000

ATOMIC_POSITIONS angstrom
C  -0.0198904601 0.0114837405 7.3745608662  
C  -1.2331623300 2.1129316135 7.3745608662  
C  2.4862145511 0.0114837547 7.3745608662  
C  1.2331617610 2.1358991530 7.8411320945  
C  -0.0339830463 1.4043126740 7.4154850079  
C  -1.2331625190 3.5598318360 7.5496702883  
C  2.5003066103 1.4043126836 7.4154850079  
C  1.2331614240 3.5990718724 7.4154850079  
H  1.2331617610 2.1358991530 8.9390599631  

