C  H 
 1.0000000000000000
     4.9326481819000003    0.0000000000000000    0.0000000000000000
    -2.4663246598000002    4.2717983050999999    0.0000000000000000
     0.0000000000000000    0.0000000000000000   15.0000000000000000
 C   H  
   8   1
Cartesian
 -0.0198904600994810  0.0114837404874155  7.3745608661861013
 -1.2331623300000001  2.1129316134833682  7.3745608661861013
  2.4862145510994851  0.0114837546844429  7.3745608661861013
  1.2331617610000001  2.1358991530000000  7.8411320945039877
 -0.0339830463272118  1.4043126739939698  7.4154850078769012
 -1.2331625190000000  3.5598318359999999  7.5496702882595121
  2.5003066103272098  1.4043126836472937  7.4154850078769012
  1.2331614240000000  3.5990718723549944  7.4154850078769012
  1.2331617610000001  2.1358991530000000  8.9390599631124026
