9
Lattice="4.9326481819 0.0 0.0 -2.4663246598 4.2717983051 0.0 0.0 0.0 15.0" Properties=species:S:1:pos:R:3:initial_magmoms:R:1 pbc="T T T"
C       -0.01592081       0.00919186       7.37751664       0.00000000
C       -1.23316233       2.11751536       7.37751664       0.00000000
C        2.48224490       0.00919188       7.37751664       0.00000000
C        1.23316176       2.13589915       7.83820338       0.00000000
C       -0.03237821       1.40523924       7.41950657       0.00000000
C       -1.23316252       3.55983184       7.53087842       0.00000000
C        2.49870177       1.40523924       7.41950657       0.00000000
C        1.23316142       3.59721876       7.41950657       0.00000000
H        1.23316176       2.13589915       8.93984852       1.00000000
