&CONTROL
   calculation      = 'scf'
   tstress          = .true.
   tprnfor          = .true.
   outdir           = './tmp'
   prefix           = 'c18'
   pseudo_dir       = '/home/danil/home/Molecular-and-Materials-Modeling-2026-Challenges/pseudopotentials'
/
&SYSTEM
   ibrav            = 0
   ecutwfc          = 100
   occupations      = 'smearing'
   degauss          = 0.01
   smearing         = 'gauss'
   nspin            = 2
   vdw_corr         = 'DFT-D3'
   dftd3_version    = 4
   starting_magnetization(1) = 0.0
   ntyp             = 1
   nat              = 18
/
&ELECTRONS
   conv_thr         = 1e-10
/
&IONS
/
&CELL
/
&FCP
/
&RISM
/
ATOMIC_SPECIES
C  12.011 C.upf

K_POINTS automatic
1 1 1  0 0 0

CELL_PARAMETERS angstrom
7.40317201610000 0.00000000000000 0.00000000000000
-3.70158600810000 6.41133503460000 0.00000000000000
0.00000000000000 0.00000000000000 15.00000000000000

ATOMIC_POSITIONS angstrom
C  0.0000000000 0.0000000000 7.5000000000  
C  -1.2338620030 2.1371116780 7.5000000000  
C  -2.4677240050 4.2742233560 7.5000000000  
C  2.4677240050 0.0000000000 7.5000000000  
C  1.2338620030 2.1371116780 7.5000000000  
C  0.0000000000 4.2742233560 7.5000000000  
C  4.9354480110 0.0000000000 7.5000000000  
C  3.7015860080 2.1371116780 7.5000000000  
C  2.4677240050 4.2742233560 7.5000000000  
C  -0.0000000120 1.4247411260 7.5000000000  
C  -1.2338620150 3.5618528040 7.5000000000  
C  -2.4677240170 5.6989644830 7.5000000000  
C  2.4677239930 1.4247411260 7.5000000000  
C  1.2338619910 3.5618528040 7.5000000000  
C  -0.0000000120 5.6989644830 7.5000000000  
C  4.9354479990 1.4247411260 7.5000000000  
C  3.7015859960 3.5618528040 7.5000000000  
C  2.4677239930 5.6989644830 7.5000000000  

