
     Program PWSCF v.7.5 starts on  8Sep2026 at 19:47:55 

     This program is part of the open-source Quantum ESPRESSO suite
     for quantum simulation of materials; please cite
         "P. Giannozzi et al., J. Phys.:Condens. Matter 21 395502 (2009);
         "P. Giannozzi et al., J. Phys.:Condens. Matter 29 465901 (2017);
         "P. Giannozzi et al., J. Chem. Phys. 152 154105 (2020);
          URL http://www.quantum-espresso.org", 
     in publications or presentations arising from this work. More details at
     http://www.quantum-espresso.org/quote

     Parallel version (MPI & OpenMP), running on       8 processor cores
     Number of MPI processes:                 4
     Threads/MPI process:                     2

     MPI processes distributed on     1 nodes
     2455 MiB available memory on the printing compute node when the environment starts

     Reading input from espresso.pwi
Warning: card &CELL ignored
Warning: card &FCP ignored
Warning: card &RISM ignored

     Current dimensions of program PWSCF are:
     Max number of different atomic species (ntypx) = 10
     Max number of k-points (npk) =  40000
     Max angular momentum in pseudopotentials (lmaxx) =  4
     Found identity + ( -0.0000  0.3333  0.0000) symmetry
     This is a supercell, fractional translations are disabled
     Message from routine setup:
     using ibrav=0 with symmetry is DISCOURAGED, use correct ibrav instead

     R & G space division:  proc/nbgrp/npool/nimage =       4
     Subspace diagonalization in iterative solution of the eigenvalue problem:
     a serial algorithm will be used


     Parallelization info
     --------------------
     sticks:   dense  smooth     PW     G-vecs:    dense   smooth      PW
     Min        1347    1347    336               162303   162303   20296
     Max        1348    1348    337               162310   162310   20307
     Sum        5389    5389   1345               649225   649225   81199

     Using Slab Decomposition



     bravais-lattice index     =            0
     lattice parameter (alat)  =      13.9900  a.u.
     unit-cell volume          =    4804.5661 (a.u.)^3
     number of atoms/cell      =           18
     number of atomic types    =            1
     number of electrons       =        72.00
     number of Kohn-Sham states=           43
     kinetic-energy cutoff     =     100.0000  Ry
     charge density cutoff     =     400.0000  Ry
     scf convergence threshold =      1.0E-10
     mixing beta               =       0.7000
     number of iterations used =            8  plain     mixing
     Exchange-correlation= PBE
                           (   1   4   3   4   0   0   0)

     celldm(1)=  13.989968  celldm(2)=   0.000000  celldm(3)=   0.000000
     celldm(4)=   0.000000  celldm(5)=   0.000000  celldm(6)=   0.000000

     crystal axes: (cart. coord. in units of alat)
               a(1) = (   1.000000   0.000000   0.000000 )  
               a(2) = (  -0.500000   0.866025   0.000000 )  
               a(3) = (   0.000000   0.000000   2.026159 )  

     reciprocal axes: (cart. coord. in units 2 pi/alat)
               b(1) = (  1.000000  0.577350 -0.000000 )  
               b(2) = (  0.000000  1.154701  0.000000 )  
               b(3) = (  0.000000 -0.000000  0.493545 )  


     PseudoPot. # 1 for C  read from file:
     /home/danil/home/Molecular-and-Materials-Modeling-2026-Challenges/pseudopotentials/C.upf
     MD5 check sum: 34a24e64c0a39f27c6c36b90a16ac686
     Pseudo is Norm-conserving + core correction, Zval =  4.0
     Generated using ONCVPSP code by D. R. Hamann
     Using radial grid of 1248 points,  4 beta functions with: 
                l(1) =   0
                l(2) =   0
                l(3) =   1
                l(4) =   1

     atomic species   valence    mass     pseudopotential
     C                 4.00    12.01100     C ( 1.00)

     Starting magnetic structure 
     atomic species   magnetization
     C               0.000

     12 Sym. Ops. (no inversion) found



   Cartesian axes

     site n.     atom                  positions (alat units)
         1        C      tau(   1) = (   0.0000000   0.0000000   1.0130793  )
         2        C      tau(   2) = (  -0.1666667   0.2886751   1.0130793  )
         3        C      tau(   3) = (  -0.3333333   0.5773503   1.0130793  )
         4        C      tau(   4) = (   0.3333333   0.0000000   1.0130793  )
         5        C      tau(   5) = (   0.1666667   0.2886751   1.0130793  )
         6        C      tau(   6) = (   0.0000000   0.5773503   1.0130793  )
         7        C      tau(   7) = (   0.6666667   0.0000000   1.0130793  )
         8        C      tau(   8) = (   0.5000000   0.2886751   1.0130793  )
         9        C      tau(   9) = (   0.3333333   0.5773503   1.0130793  )
        10        C      tau(  10) = (  -0.0000000   0.1924501   1.0130793  )
        11        C      tau(  11) = (  -0.1666667   0.4811252   1.0130793  )
        12        C      tau(  12) = (  -0.3333333   0.7698004   1.0130793  )
        13        C      tau(  13) = (   0.3333333   0.1924501   1.0130793  )
        14        C      tau(  14) = (   0.1666667   0.4811252   1.0130793  )
        15        C      tau(  15) = (  -0.0000000   0.7698004   1.0130793  )
        16        C      tau(  16) = (   0.6666667   0.1924501   1.0130793  )
        17        C      tau(  17) = (   0.5000000   0.4811252   1.0130793  )
        18        C      tau(  18) = (   0.3333333   0.7698004   1.0130793  )

     --------------------------------------------
     DFT-D3 Dispersion Correction (3-body terms):
     --------------------------------------------
       Reference C6 values for interpolation: 

         atom   Coordination number   C6
         C          0.000            98.23
         C          0.987            86.49
         C          1.998            58.72
         C          2.999            51.56
         C          3.984            36.41

       Values used:

         atom   Coordination number  R0_AB[au]  C6      C8
         C          3.303            2.750     48.50   1402.82
         C          3.303            2.750     48.50   1402.82
         C          3.303            2.750     48.50   1402.82
         C          3.303            2.750     48.50   1402.82
         C          3.303            2.750     48.50   1402.82
         C          3.303            2.750     48.50   1402.82
         C          3.303            2.750     48.50   1402.82
         C          3.303            2.750     48.50   1402.82
         C          3.303            2.750     48.50   1402.82
         C          3.303            2.750     48.50   1402.82
         C          3.303            2.750     48.50   1402.82
         C          3.303            2.750     48.50   1402.82
         C          3.303            2.750     48.50   1402.82
         C          3.303            2.750     48.50   1402.82
         C          3.303            2.750     48.50   1402.82
         C          3.303            2.750     48.50   1402.82
         C          3.303            2.750     48.50   1402.82
         C          3.303            2.750     48.50   1402.82

         Molecular C6 ( Ry / a.u.^6 ) =     15715.32


     number of k points=     1  Gaussian smearing, width (Ry)=  0.0100
                       cart. coord. in units 2pi/alat
        k(    1) = (   0.0000000   0.0000000   0.0000000), wk =   1.0000000

     Dense  grid:   649225 G-vectors     FFT dimensions: (  90,  90, 192)

     Estimated max dynamical RAM per process >     297.16 MB

     Estimated total dynamical RAM >       1.16 GB
     Generating pointlists ...
     new r_m :   0.0794 (alat units)  1.1106 (a.u.) for type    1

     Initial potential from superposition of free atoms

     starting charge      71.9992, renormalised to      72.0000

     negative rho (up, down):  5.929E-06 5.929E-06
     Starting wfcs are   72 randomized atomic wfcs

     total cpu time spent up to now is        2.9 secs

     per-process dynamical memory:   189.1 Mb

     Self-consistent Calculation

     iteration #  1     ecut=   100.00 Ry     beta= 0.70
     Davidson diagonalization with overlap
     ethr =  1.00E-02,  avg # of iterations =  3.0

     total cpu time spent up to now is        6.4 secs

     total energy              =    -216.41682762 Ry
     estimated scf accuracy    <       1.60857133 Ry

     total magnetization       =     0.00 Bohr mag/cell
     absolute magnetization    =     0.01 Bohr mag/cell

     iteration #  2     ecut=   100.00 Ry     beta= 0.70
     Davidson diagonalization with overlap
     ethr =  2.23E-03,  avg # of iterations =  2.0

     total cpu time spent up to now is        9.3 secs

     total energy              =    -216.61202394 Ry
     estimated scf accuracy    <       0.02734664 Ry

     total magnetization       =     0.00 Bohr mag/cell
     absolute magnetization    =     0.00 Bohr mag/cell

     iteration #  3     ecut=   100.00 Ry     beta= 0.70
     Davidson diagonalization with overlap
     ethr =  3.80E-05,  avg # of iterations =  3.0

     total cpu time spent up to now is       13.3 secs

     total energy              =    -216.62449062 Ry
     estimated scf accuracy    <       0.00226533 Ry

     total magnetization       =     0.00 Bohr mag/cell
     absolute magnetization    =     0.01 Bohr mag/cell

     iteration #  4     ecut=   100.00 Ry     beta= 0.70
     Davidson diagonalization with overlap
     c_bands:  1 eigenvalues not converged
     ethr =  3.15E-06,  avg # of iterations = 11.5

     total cpu time spent up to now is       17.7 secs

     total energy              =    -216.62515662 Ry
     estimated scf accuracy    <       0.00252505 Ry

     total magnetization       =     0.01 Bohr mag/cell
     absolute magnetization    =     0.02 Bohr mag/cell

     iteration #  5     ecut=   100.00 Ry     beta= 0.70
     Davidson diagonalization with overlap
     ethr =  3.15E-06,  avg # of iterations =  1.5

     total cpu time spent up to now is       21.2 secs

     total energy              =    -216.62533119 Ry
     estimated scf accuracy    <       0.00018387 Ry

     total magnetization       =     0.01 Bohr mag/cell
     absolute magnetization    =     0.02 Bohr mag/cell

     iteration #  6     ecut=   100.00 Ry     beta= 0.70
     Davidson diagonalization with overlap
