18
Lattice="7.4031720161 0.0 0.0 -3.7015860081 6.4113350346 0.0 0.0 0.0 15.0" Properties=species:S:1:pos:R:3 pbc="T T T"
C        0.00000000       0.00000000       7.50000000
C       -1.23386200       2.13711168       7.50000000
C       -2.46772400       4.27422336       7.50000000
C        2.46772400       0.00000000       7.50000000
C        1.23386200       2.13711168       7.50000000
C        0.00000000       4.27422336       7.50000000
C        4.93544801       0.00000000       7.50000000
C        3.70158601       2.13711168       7.50000000
C        2.46772400       4.27422336       7.50000000
C       -0.00000001       1.42474113       7.50000000
C       -1.23386201       3.56185280       7.50000000
C       -2.46772402       5.69896448       7.50000000
C        2.46772399       1.42474113       7.50000000
C        1.23386199       3.56185280       7.50000000
C       -0.00000001       5.69896448       7.50000000
C        4.93544800       1.42474113       7.50000000
C        3.70158600       3.56185280       7.50000000
C        2.46772399       5.69896448       7.50000000
