
     Program PWSCF v.7.5 starts on  8Sep2026 at 19:39:47 

     This program is part of the open-source Quantum ESPRESSO suite
     for quantum simulation of materials; please cite
         "P. Giannozzi et al., J. Phys.:Condens. Matter 21 395502 (2009);
         "P. Giannozzi et al., J. Phys.:Condens. Matter 29 465901 (2017);
         "P. Giannozzi et al., J. Chem. Phys. 152 154105 (2020);
          URL http://www.quantum-espresso.org", 
     in publications or presentations arising from this work. More details at
     http://www.quantum-espresso.org/quote

     Parallel version (MPI & OpenMP), running on       8 processor cores
     Number of MPI processes:                 4
     Threads/MPI process:                     2

     MPI processes distributed on     1 nodes
     3018 MiB available memory on the printing compute node when the environment starts

     Reading input from espresso.pwi
Warning: card &CELL ignored
Warning: card &FCP ignored
Warning: card &RISM ignored

     Current dimensions of program PWSCF are:
     Max number of different atomic species (ntypx) = 10
     Max number of k-points (npk) =  40000
     Max angular momentum in pseudopotentials (lmaxx) =  4
     Message from routine setup:
     using ibrav=0 with symmetry is DISCOURAGED, use correct ibrav instead

     R & G space division:  proc/nbgrp/npool/nimage =       4
     Subspace diagonalization in iterative solution of the eigenvalue problem:
     a serial algorithm will be used


     Parallelization info
     --------------------
     sticks:   dense  smooth     PW     G-vecs:    dense   smooth      PW
     Min         124     124     37                 1743     1743     309
     Max         126     126     38                 1744     1744     312
     Sum         499     499    151                 6975     6975    1243

     Using Slab Decomposition



     bravais-lattice index     =            0
     lattice parameter (alat)  =       5.4104  a.u.
     unit-cell volume          =     111.9902 (a.u.)^3
     number of atoms/cell      =            1
     number of atomic types    =            1
     number of electrons       =         3.00
     number of Kohn-Sham states=            6
     kinetic-energy cutoff     =      60.0000  Ry
     charge density cutoff     =     240.0000  Ry
     scf convergence threshold =      1.0E-10
     mixing beta               =       0.7000
     number of iterations used =            8  plain     mixing
     Exchange-correlation= PBE
                           (   1   4   3   4   0   0   0)

     celldm(1)=   5.410428  celldm(2)=   0.000000  celldm(3)=   0.000000
     celldm(4)=   0.000000  celldm(5)=   0.000000  celldm(6)=   0.000000

     crystal axes: (cart. coord. in units of alat)
               a(1) = (   0.000000   0.707107   0.707107 )  
               a(2) = (   0.707107   0.000000   0.707107 )  
               a(3) = (   0.707107   0.707107   0.000000 )  

     reciprocal axes: (cart. coord. in units 2 pi/alat)
               b(1) = ( -0.707107  0.707107  0.707107 )  
               b(2) = (  0.707107 -0.707107  0.707107 )  
               b(3) = (  0.707107  0.707107 -0.707107 )  


     PseudoPot. # 1 for Al read from file:
     /home/danil/home/Molecular-and-Materials-Modeling-2026-Challenges/pseudopotentials/Al.upf
     MD5 check sum: 0b5c6c21fc59a2e497c09c32fa85f380
     Pseudo is Norm-conserving + core correction, Zval =  3.0
     Generated using ONCVPSP code by D. R. Hamann
     Using radial grid of 1876 points,  6 beta functions with: 
                l(1) =   0
                l(2) =   0
                l(3) =   1
                l(4) =   1
                l(5) =   2
                l(6) =   2

     atomic species   valence    mass     pseudopotential
     Al                3.00    26.98154     Al( 1.00)

     48 Sym. Ops., with inversion, found



   Cartesian axes

     site n.     atom                  positions (alat units)
         1        Al     tau(   1) = (   0.0000000   0.0000000   0.0000000  )

     number of k points=    29  Marzari-Vanderbilt smearing, width (Ry)=  0.0200
                       cart. coord. in units 2pi/alat
        k(    1) = (   0.0000000   0.0000000   0.0000000), wk =   0.0039062
        k(    2) = (   0.0883883   0.0883883  -0.0883883), wk =   0.0312500
        k(    3) = (   0.1767767   0.1767767  -0.1767767), wk =   0.0312500
        k(    4) = (   0.2651650   0.2651650  -0.2651650), wk =   0.0312500
        k(    5) = (  -0.3535534  -0.3535534   0.3535534), wk =   0.0156250
        k(    6) = (   0.1767767   0.0000000   0.0000000), wk =   0.0234375
        k(    7) = (   0.2651650   0.0883883  -0.0883883), wk =   0.0937500
        k(    8) = (   0.3535534   0.1767767  -0.1767767), wk =   0.0937500
        k(    9) = (  -0.2651650  -0.4419417   0.4419417), wk =   0.0937500
        k(   10) = (  -0.1767767  -0.3535534   0.3535534), wk =   0.0937500
        k(   11) = (  -0.0883883  -0.2651650   0.2651650), wk =   0.0937500
        k(   12) = (   0.0000000  -0.1767767   0.1767767), wk =   0.0468750
        k(   13) = (   0.3535534   0.0000000   0.0000000), wk =   0.0234375
        k(   14) = (   0.4419417   0.0883883  -0.0883883), wk =   0.0937500
        k(   15) = (  -0.1767767  -0.5303301   0.5303301), wk =   0.0937500
        k(   16) = (  -0.0883883  -0.4419417   0.4419417), wk =   0.0937500
        k(   17) = (   0.0000000  -0.3535534   0.3535534), wk =   0.0468750
        k(   18) = (   0.5303301   0.0000000   0.0000000), wk =   0.0234375
        k(   19) = (  -0.0883883  -0.6187184   0.6187184), wk =   0.0937500
        k(   20) = (   0.0000000  -0.5303301   0.5303301), wk =   0.0468750
        k(   21) = (  -0.7071068   0.0000000   0.0000000), wk =   0.0117188
        k(   22) = (   0.3535534   0.1767767   0.0000000), wk =   0.0937500
        k(   23) = (  -0.2651650  -0.4419417   0.6187184), wk =   0.1875000
        k(   24) = (  -0.1767767  -0.3535534   0.5303301), wk =   0.0937500
        k(   25) = (  -0.1767767  -0.5303301   0.7071068), wk =   0.0937500
        k(   26) = (  -0.0883883  -0.4419417   0.6187184), wk =   0.1875000
        k(   27) = (   0.0000000  -0.3535534   0.5303301), wk =   0.0937500
        k(   28) = (  -0.7071068   0.1767767   0.0000000), wk =   0.0468750
        k(   29) = (  -0.7071068   0.3535534   0.0000000), wk =   0.0234375

     Dense  grid:     6975 G-vectors     FFT dimensions: (  27,  27,  27)

     Estimated max dynamical RAM per process >       3.07 MB

     Estimated total dynamical RAM >      12.28 MB

     Initial potential from superposition of free atoms

     starting charge       2.9976, renormalised to       3.0000
     Starting wfcs are    4 randomized atomic wfcs +    2 random wfcs

     total cpu time spent up to now is        0.1 secs

     per-process dynamical memory:    12.6 Mb

     Self-consistent Calculation

     iteration #  1     ecut=    60.00 Ry     beta= 0.70
     Davidson diagonalization with overlap
     ethr =  1.00E-02,  avg # of iterations =  6.3

     Threshold (ethr) on eigenvalues was too large:
     Diagonalizing with lowered threshold

     Davidson diagonalization with overlap
     ethr =  1.96E-04,  avg # of iterations =  4.1

     total cpu time spent up to now is        0.4 secs

     total energy              =      -4.63491204 Ry
     estimated scf accuracy    <       0.00580464 Ry

     iteration #  2     ecut=    60.00 Ry     beta= 0.70
     Davidson diagonalization with overlap
     ethr =  1.93E-04,  avg # of iterations =  1.0

     total cpu time spent up to now is        0.5 secs

     total energy              =      -4.63488141 Ry
     estimated scf accuracy    <       0.00041501 Ry

     iteration #  3     ecut=    60.00 Ry     beta= 0.70
     Davidson diagonalization with overlap
     ethr =  1.38E-05,  avg # of iterations =  2.8

     total cpu time spent up to now is        0.6 secs

     total energy              =      -4.63489906 Ry
     estimated scf accuracy    <       0.00000076 Ry

     iteration #  4     ecut=    60.00 Ry     beta= 0.70
     Davidson diagonalization with overlap
     ethr =  2.52E-08,  avg # of iterations =  3.3

     total cpu time spent up to now is        0.7 secs

     total energy              =      -4.63490028 Ry
     estimated scf accuracy    <       0.00000001 Ry

     iteration #  5     ecut=    60.00 Ry     beta= 0.70
     Davidson diagonalization with overlap
     ethr =  4.09E-10,  avg # of iterations =  2.5

     total cpu time spent up to now is        0.8 secs

     End of self-consistent calculation

          k = 0.0000 0.0000 0.0000 (   893 PWs)   bands (ev):

    -3.2270  20.4515  20.4515  21.8824  21.8824  21.8824

          k = 0.0884 0.0884-0.0884 (   893 PWs)   bands (ev):

    -2.8044  16.1560  19.4957  19.4957  22.5182  23.4266

          k = 0.1768 0.1768-0.1768 (   890 PWs)   bands (ev):

    -1.5439  11.2982  18.7291  18.7291  22.1667  22.5551

          k = 0.2652 0.2652-0.2652 (   878 PWs)   bands (ev):

     0.5332   7.0063  18.6371  18.6371  20.5773  20.5774

          k =-0.3536-0.3536 0.3536 (   886 PWs)   bands (ev):

     3.2944   3.5015  19.2079  19.2079  19.2985  19.2986

          k = 0.1768 0.0000 0.0000 (   889 PWs)   bands (ev):

    -2.6638  17.7401  17.7401  18.0028  20.7387  22.4507

          k = 0.2652 0.0884-0.0884 (   885 PWs)   bands (ev):

    -1.6834  13.1543  16.6780  18.1967  19.4236  21.9443

          k = 0.3536 0.1768-0.1768 (   876 PWs)   bands (ev):

     0.1198   8.7014  16.3306  17.0563  18.0330  24.0352

          k =-0.2652-0.4419 0.4419 (   883 PWs)   bands (ev):

     2.7133   4.8802  15.4338  16.7019  18.4702  22.5275

          k =-0.1768-0.3536 0.3536 (   873 PWs)   bands (ev):

     1.7648   6.0719  14.5550  17.7925  19.6502  21.6880

          k =-0.0884-0.2652 0.2652 (   877 PWs)   bands (ev):

    -0.5710  10.0992  14.4557  19.5824  21.5305  21.5376

          k = 0.0000-0.1768 0.1768 (   887 PWs)   bands (ev):

    -2.1028  14.2990  15.5309  21.5458  21.8299  23.1710

          k = 0.3536 0.0000 0.0000 (   881 PWs)   bands (ev):

    -0.9873  15.3380  15.3554  15.3554  16.0989  18.8150

          k = 0.4419 0.0884-0.0884 (   876 PWs)   bands (ev):

     0.5316  11.0838  13.4340  14.7588  16.2267  20.2285

          k =-0.1768-0.5303 0.5303 (   875 PWs)   bands (ev):

     2.8431   7.1175  11.5128  14.8851  16.5681  23.8876

          k =-0.0884-0.4419 0.4419 (   871 PWs)   bands (ev):

     3.7893   5.8998  10.3924  15.7344  17.5562  25.4385

          k = 0.0000-0.3536 0.3536 (   883 PWs)   bands (ev):

     1.2184   9.1083  10.6074  17.3066  19.2673  24.7886

          k = 0.5303 0.0000 0.0000 (   870 PWs)   bands (ev):

     1.7578  10.4480  13.6830  13.9167  13.9167  17.3893

          k =-0.0884-0.6187 0.6187 (   877 PWs)   bands (ev):

     3.7546   8.2416  10.0743  13.7987  15.1644  19.2936

          k = 0.0000-0.5303 0.5303 (   874 PWs)   bands (ev):

     5.9924   6.5178   7.4663  14.4037  16.0440  23.4743

          k =-0.7071 0.0000 0.0000 (   846 PWs)   bands (ev):

     4.9568   6.2727  13.1269  13.4374  13.4374  16.8805

          k = 0.3536 0.1768 0.0000 (   880 PWs)   bands (ev):

    -0.4327  11.7097  13.1041  16.6144  19.9688  21.7182

          k =-0.2652-0.4419 0.6187 (   876 PWs)   bands (ev):

     1.6272   8.0055  12.4311  14.4842  20.5875  22.6660

          k =-0.1768-0.3536 0.5303 (   882 PWs)   bands (ev):

     4.3384   4.5902  12.8294  13.2906  21.1062  21.5446

          k =-0.1768-0.5303 0.7071 (   880 PWs)   bands (ev):

     2.3016  10.1498  10.8602  11.7416  18.4801  20.4721

          k =-0.0884-0.4419 0.6187 (   884 PWs)   bands (ev):

     4.8185   6.9447   9.3218  11.4757  19.6578  23.7719

          k = 0.0000-0.3536 0.5303 (   885 PWs)   bands (ev):

     3.9197   7.5491   9.0133  12.5786  20.8678  24.1038

          k =-0.7071 0.1768 0.0000 (   876 PWs)   bands (ev):

     5.4744   6.8129   9.6293  11.1293  17.9725  20.0187

          k =-0.7071 0.3536 0.0000 (   876 PWs)   bands (ev):

     7.0299   7.0299   8.0473   8.9519  23.6315  24.1368

     the Fermi energy is     7.8310 ev

!    total energy              =      -4.63490029 Ry
     estimated scf accuracy    <          9.2E-12 Ry
     smearing contrib. (-TS)   =       0.00006094 Ry
     internal energy E=F+TS    =      -4.63496123 Ry

     The total energy is F=E-TS. E is the sum of the following terms:
     one-electron contribution =       2.91420031 Ry
     hartree contribution      =       0.00760572 Ry
     xc contribution           =      -2.16387007 Ry
     ewald contribution        =      -5.39289719 Ry

     convergence has been achieved in   5 iterations

     Forces acting on atoms (cartesian axes, Ry/au):

     atom    1 type  1   force =     0.00000000    0.00000000    0.00000000

     Total force =     0.000000     Total SCF correction =     0.000000


     Computing stress (Cartesian axis) and pressure

          total   stress  (Ry/bohr**3)                   (kbar)     P=       -5.97
  -0.00004058   0.00000000   0.00000000           -5.97        0.00        0.00
   0.00000000  -0.00004058   0.00000000            0.00       -5.97        0.00
   0.00000000   0.00000000  -0.00004058            0.00        0.00       -5.97


     Writing all to output data dir ./tmp/ecut_60.save/ :
     XML data file, charge density, pseudopotentials, collected wavefunctions

     init_run     :      0.09s CPU      0.11s WALL (       1 calls)
     electrons    :      0.83s CPU      0.67s WALL (       1 calls)
     forces       :      0.01s CPU      0.01s WALL (       1 calls)
     stress       :      0.03s CPU      0.02s WALL (       1 calls)

     Called by init_run:
     wfcinit      :      0.02s CPU      0.04s WALL (       1 calls)
     potinit      :      0.01s CPU      0.01s WALL (       1 calls)
     hinit0       :      0.06s CPU      0.06s WALL (       1 calls)

     Called by electrons:
     c_bands      :      0.70s CPU      0.56s WALL (       6 calls)
     sum_band     :      0.12s CPU      0.10s WALL (       6 calls)
     v_of_rho     :      0.01s CPU      0.01s WALL (       6 calls)
     mix_rho      :      0.00s CPU      0.00s WALL (       6 calls)

     Called by c_bands:
     init_us_2    :      0.02s CPU      0.01s WALL (     435 calls)
     cegterg      :      0.67s CPU      0.54s WALL (     174 calls)

     Called by *egterg:
     cdiaghg      :      0.04s CPU      0.02s WALL (     724 calls)
     h_psi        :      0.61s CPU      0.52s WALL (     782 calls)
     g_psi        :      0.00s CPU      0.00s WALL (     579 calls)

     Called by h_psi:
     h_psi:calbec :      0.02s CPU      0.02s WALL (     782 calls)
     vloc_psi     :      0.58s CPU      0.48s WALL (     782 calls)
                                        0.00s GPU  (     782 calls)
     add_vuspsi   :      0.01s CPU      0.00s WALL (     782 calls)

     General routines
     calbec       :      0.02s CPU      0.02s WALL (    1275 calls)
     fft          :      0.05s CPU      0.05s WALL (      85 calls)
     ffts         :      0.00s CPU      0.00s WALL (       6 calls)
     fftw         :      0.63s CPU      0.52s WALL (    7292 calls)

     Parallel routines

     PWSCF        :      0.99s CPU      0.85s WALL


   This run was terminated on:  19:39:48   8Sep2026            

=------------------------------------------------------------------------------=
   JOB DONE.
=------------------------------------------------------------------------------=
