
     Program PWSCF v.7.5 starts on  8Sep2026 at 19:40: 6 

     This program is part of the open-source Quantum ESPRESSO suite
     for quantum simulation of materials; please cite
         "P. Giannozzi et al., J. Phys.:Condens. Matter 21 395502 (2009);
         "P. Giannozzi et al., J. Phys.:Condens. Matter 29 465901 (2017);
         "P. Giannozzi et al., J. Chem. Phys. 152 154105 (2020);
          URL http://www.quantum-espresso.org", 
     in publications or presentations arising from this work. More details at
     http://www.quantum-espresso.org/quote

     Parallel version (MPI & OpenMP), running on       8 processor cores
     Number of MPI processes:                 4
     Threads/MPI process:                     2

     MPI processes distributed on     1 nodes
     3064 MiB available memory on the printing compute node when the environment starts

     Reading input from espresso.pwi
Warning: card &CELL ignored
Warning: card &FCP ignored
Warning: card &RISM ignored

     Current dimensions of program PWSCF are:
     Max number of different atomic species (ntypx) = 10
     Max number of k-points (npk) =  40000
     Max angular momentum in pseudopotentials (lmaxx) =  4
     Message from routine setup:
     using ibrav=0 with symmetry is DISCOURAGED, use correct ibrav instead

     R & G space division:  proc/nbgrp/npool/nimage =       4
     Subspace diagonalization in iterative solution of the eigenvalue problem:
     a serial algorithm will be used


     Parallelization info
     --------------------
     sticks:   dense  smooth     PW     G-vecs:    dense   smooth      PW
     Min         102     102     31                 1332     1332     241
     Max         103     103     32                 1333     1333     242
     Sum         409     409    127                 5329     5329     965

     Using Slab Decomposition



     bravais-lattice index     =            0
     lattice parameter (alat)  =       5.4104  a.u.
     unit-cell volume          =     111.9902 (a.u.)^3
     number of atoms/cell      =            1
     number of atomic types    =            1
     number of electrons       =         3.00
     number of Kohn-Sham states=            6
     kinetic-energy cutoff     =      50.0000  Ry
     charge density cutoff     =     200.0000  Ry
     scf convergence threshold =      1.0E-10
     mixing beta               =       0.7000
     number of iterations used =            8  plain     mixing
     Exchange-correlation= PBE
                           (   1   4   3   4   0   0   0)

     celldm(1)=   5.410428  celldm(2)=   0.000000  celldm(3)=   0.000000
     celldm(4)=   0.000000  celldm(5)=   0.000000  celldm(6)=   0.000000

     crystal axes: (cart. coord. in units of alat)
               a(1) = (   0.000000   0.707107   0.707107 )  
               a(2) = (   0.707107   0.000000   0.707107 )  
               a(3) = (   0.707107   0.707107   0.000000 )  

     reciprocal axes: (cart. coord. in units 2 pi/alat)
               b(1) = ( -0.707107  0.707107  0.707107 )  
               b(2) = (  0.707107 -0.707107  0.707107 )  
               b(3) = (  0.707107  0.707107 -0.707107 )  


     PseudoPot. # 1 for Al read from file:
     /home/danil/home/Molecular-and-Materials-Modeling-2026-Challenges/pseudopotentials/Al.upf
     MD5 check sum: 0b5c6c21fc59a2e497c09c32fa85f380
     Pseudo is Norm-conserving + core correction, Zval =  3.0
     Generated using ONCVPSP code by D. R. Hamann
     Using radial grid of 1876 points,  6 beta functions with: 
                l(1) =   0
                l(2) =   0
                l(3) =   1
                l(4) =   1
                l(5) =   2
                l(6) =   2

     atomic species   valence    mass     pseudopotential
     Al                3.00    26.98154     Al( 1.00)

     48 Sym. Ops., with inversion, found



   Cartesian axes

     site n.     atom                  positions (alat units)
         1        Al     tau(   1) = (   0.0000000   0.0000000   0.0000000  )

     number of k points=    72  Marzari-Vanderbilt smearing, width (Ry)=  0.0200
                       cart. coord. in units 2pi/alat
        k(    1) = (   0.0000000   0.0000000   0.0000000), wk =   0.0011574
        k(    2) = (   0.0589256   0.0589256  -0.0589256), wk =   0.0092593
        k(    3) = (   0.1178511   0.1178511  -0.1178511), wk =   0.0092593
        k(    4) = (   0.1767767   0.1767767  -0.1767767), wk =   0.0092593
        k(    5) = (   0.2357023   0.2357023  -0.2357023), wk =   0.0092593
        k(    6) = (   0.2946278   0.2946278  -0.2946278), wk =   0.0092593
        k(    7) = (  -0.3535534  -0.3535534   0.3535534), wk =   0.0046296
        k(    8) = (   0.1178511   0.0000000   0.0000000), wk =   0.0069444
        k(    9) = (   0.1767767   0.0589256  -0.0589256), wk =   0.0277778
        k(   10) = (   0.2357023   0.1178511  -0.1178511), wk =   0.0277778
        k(   11) = (   0.2946278   0.1767767  -0.1767767), wk =   0.0277778
        k(   12) = (   0.3535534   0.2357023  -0.2357023), wk =   0.0277778
        k(   13) = (  -0.2946278  -0.4124790   0.4124790), wk =   0.0277778
        k(   14) = (  -0.2357023  -0.3535534   0.3535534), wk =   0.0277778
        k(   15) = (  -0.1767767  -0.2946278   0.2946278), wk =   0.0277778
        k(   16) = (  -0.1178511  -0.2357023   0.2357023), wk =   0.0277778
        k(   17) = (  -0.0589256  -0.1767767   0.1767767), wk =   0.0277778
        k(   18) = (  -0.0000000  -0.1178511   0.1178511), wk =   0.0138889
        k(   19) = (   0.2357023   0.0000000   0.0000000), wk =   0.0069444
        k(   20) = (   0.2946278   0.0589256  -0.0589256), wk =   0.0277778
        k(   21) = (   0.3535534   0.1178511  -0.1178511), wk =   0.0277778
        k(   22) = (   0.4124790   0.1767767  -0.1767767), wk =   0.0277778
        k(   23) = (  -0.2357023  -0.4714045   0.4714045), wk =   0.0277778
        k(   24) = (  -0.1767767  -0.4124790   0.4124790), wk =   0.0277778
        k(   25) = (  -0.1178511  -0.3535534   0.3535534), wk =   0.0277778
        k(   26) = (  -0.0589256  -0.2946278   0.2946278), wk =   0.0277778
        k(   27) = (   0.0000000  -0.2357023   0.2357023), wk =   0.0138889
        k(   28) = (   0.3535534   0.0000000   0.0000000), wk =   0.0069444
        k(   29) = (   0.4124790   0.0589256  -0.0589256), wk =   0.0277778
        k(   30) = (   0.4714045   0.1178511  -0.1178511), wk =   0.0277778
        k(   31) = (  -0.1767767  -0.5303301   0.5303301), wk =   0.0277778
        k(   32) = (  -0.1178511  -0.4714045   0.4714045), wk =   0.0277778
        k(   33) = (  -0.0589256  -0.4124790   0.4124790), wk =   0.0277778
        k(   34) = (   0.0000000  -0.3535534   0.3535534), wk =   0.0138889
        k(   35) = (   0.4714045   0.0000000   0.0000000), wk =   0.0069444
        k(   36) = (   0.5303301   0.0589256  -0.0589256), wk =   0.0277778
        k(   37) = (  -0.1178511  -0.5892557   0.5892557), wk =   0.0277778
        k(   38) = (  -0.0589256  -0.5303301   0.5303301), wk =   0.0277778
        k(   39) = (  -0.0000000  -0.4714045   0.4714045), wk =   0.0138889
        k(   40) = (   0.5892557   0.0000000   0.0000000), wk =   0.0069444
        k(   41) = (  -0.0589256  -0.6481812   0.6481812), wk =   0.0277778
        k(   42) = (   0.0000000  -0.5892557   0.5892557), wk =   0.0138889
        k(   43) = (  -0.7071068   0.0000000   0.0000000), wk =   0.0034722
        k(   44) = (   0.2357023   0.1178511  -0.0000000), wk =   0.0277778
        k(   45) = (   0.2946278   0.1767767  -0.0589256), wk =   0.0555556
        k(   46) = (   0.3535534   0.2357023  -0.1178511), wk =   0.0555556
        k(   47) = (  -0.2946278  -0.4124790   0.5303301), wk =   0.0555556
        k(   48) = (  -0.2357023  -0.3535534   0.4714045), wk =   0.0277778
        k(   49) = (   0.3535534   0.1178511   0.0000000), wk =   0.0277778
        k(   50) = (   0.4124790   0.1767767  -0.0589256), wk =   0.0555556
        k(   51) = (  -0.2357023  -0.4714045   0.5892557), wk =   0.0555556
        k(   52) = (  -0.1767767  -0.4124790   0.5303301), wk =   0.0555556
        k(   53) = (  -0.1178511  -0.3535534   0.4714045), wk =   0.0555556
        k(   54) = (  -0.0589256  -0.2946278   0.4124790), wk =   0.0555556
        k(   55) = (   0.0000000  -0.2357023   0.3535534), wk =   0.0277778
        k(   56) = (   0.4714045   0.1178511   0.0000000), wk =   0.0277778
        k(   57) = (  -0.1767767  -0.5303301   0.6481812), wk =   0.0555556
        k(   58) = (  -0.1178511  -0.4714045   0.5892557), wk =   0.0555556
        k(   59) = (  -0.0589256  -0.4124790   0.5303301), wk =   0.0555556
        k(   60) = (  -0.0000000  -0.3535534   0.4714045), wk =   0.0277778
        k(   61) = (  -0.1178511  -0.5892557   0.7071068), wk =   0.0277778
        k(   62) = (  -0.0589256  -0.5303301   0.6481812), wk =   0.0555556
        k(   63) = (  -0.0000000  -0.4714045   0.5892557), wk =   0.0277778
        k(   64) = (  -0.7071068   0.1178511   0.0000000), wk =   0.0138889
        k(   65) = (  -0.2357023  -0.4714045   0.7071068), wk =   0.0277778
        k(   66) = (  -0.1767767  -0.4124790   0.6481812), wk =   0.0555556
        k(   67) = (  -0.1178511  -0.3535534   0.5892557), wk =   0.0277778
        k(   68) = (  -0.1178511  -0.4714045   0.7071068), wk =   0.0277778
        k(   69) = (  -0.0589256  -0.4124790   0.6481812), wk =   0.0555556
        k(   70) = (   0.0000000  -0.3535534   0.5892557), wk =   0.0277778
        k(   71) = (  -0.7071068   0.2357023   0.0000000), wk =   0.0138889
        k(   72) = (  -0.7071068   0.3535534   0.0000000), wk =   0.0069444

     Dense  grid:     5329 G-vectors     FFT dimensions: (  25,  25,  25)

     Estimated max dynamical RAM per process >       3.22 MB

     Estimated total dynamical RAM >      12.89 MB

     Initial potential from superposition of free atoms

     starting charge       2.9976, renormalised to       3.0000
     Starting wfcs are    4 randomized atomic wfcs +    2 random wfcs

     total cpu time spent up to now is        0.2 secs

     per-process dynamical memory:    12.9 Mb

     Self-consistent Calculation

     iteration #  1     ecut=    50.00 Ry     beta= 0.70
     Davidson diagonalization with overlap
     ethr =  1.00E-02,  avg # of iterations =  6.4

     Threshold (ethr) on eigenvalues was too large:
     Diagonalizing with lowered threshold

     Davidson diagonalization with overlap
     ethr =  1.94E-04,  avg # of iterations =  3.4

     total cpu time spent up to now is        0.8 secs

     total energy              =      -4.63567133 Ry
     estimated scf accuracy    <       0.00574748 Ry

     iteration #  2     ecut=    50.00 Ry     beta= 0.70
     Davidson diagonalization with overlap
     ethr =  1.92E-04,  avg # of iterations =  1.1

     total cpu time spent up to now is        1.0 secs

     total energy              =      -4.63564162 Ry
     estimated scf accuracy    <       0.00040573 Ry

     iteration #  3     ecut=    50.00 Ry     beta= 0.70
     Davidson diagonalization with overlap
     ethr =  1.35E-05,  avg # of iterations =  3.0

     total cpu time spent up to now is        1.2 secs

     total energy              =      -4.63565896 Ry
     estimated scf accuracy    <       0.00000073 Ry

     iteration #  4     ecut=    50.00 Ry     beta= 0.70
     Davidson diagonalization with overlap
     ethr =  2.43E-08,  avg # of iterations =  3.8

     total cpu time spent up to now is        1.5 secs

     total energy              =      -4.63566014 Ry
     estimated scf accuracy    <       0.00000001 Ry

     iteration #  5     ecut=    50.00 Ry     beta= 0.70
     Davidson diagonalization with overlap
     ethr =  3.44E-10,  avg # of iterations =  2.2

     total cpu time spent up to now is        1.7 secs

     End of self-consistent calculation

          k = 0.0000 0.0000 0.0000 (   645 PWs)   bands (ev):

    -3.2278  20.4503  20.4504  21.8818  21.8818  21.8818

          k = 0.0589 0.0589-0.0589 (   661 PWs)   bands (ev):

    -3.0398  17.8363  19.8720  19.8720  22.5670  22.7448

          k = 0.1179 0.1179-0.1179 (   661 PWs)   bands (ev):

    -2.4774  14.4880  19.1699  19.1699  22.3917  23.8001

          k = 0.1768 0.1768-0.1768 (   655 PWs)   bands (ev):

    -1.5448  11.2972  18.7283  18.7283  22.1660  22.5543

          k = 0.2357 0.2357-0.2357 (   658 PWs)   bands (ev):

    -0.2489   8.3633  18.5891  18.5891  21.1699  21.1699

          k = 0.2946 0.2946-0.2946 (   664 PWs)   bands (ev):

     1.4005   5.7243  18.7617  18.7618  20.0584  20.0584

          k =-0.3536-0.3536 0.3536 (   652 PWs)   bands (ev):

     3.2939   3.5002  19.2067  19.2067  19.2981  19.2981

          k = 0.1179 0.0000 0.0000 (   669 PWs)   bands (ev):

    -2.9772  18.7254  18.7254  19.0351  21.3153  23.9672

          k = 0.1768 0.0589-0.0589 (   667 PWs)   bands (ev):

    -2.5398  15.6890  17.8494  19.1313  21.6726  22.6281

          k = 0.2357 0.1179-0.1179 (   658 PWs)   bands (ev):

    -1.7308  12.4674  17.2801  18.7927  20.5834  23.4724

          k = 0.2946 0.1768-0.1768 (   661 PWs)   bands (ev):

    -0.5565   9.4569  17.0254  18.5918  19.0391  23.4341

          k = 0.3536 0.2357-0.2357 (   657 PWs)   bands (ev):

     0.9745   6.7238  17.0882  17.7683  18.7021  22.2531

          k =-0.2946-0.4125 0.4125 (   664 PWs)   bands (ev):

     2.8470   4.3021  16.8325  17.4697  19.1170  21.3572

          k =-0.2357-0.3536 0.3536 (   664 PWs)   bands (ev):

     2.1872   5.0714  16.2221  18.1696  19.8580  20.7687

          k =-0.1768-0.2946 0.2946 (   663 PWs)   bands (ev):

     0.4253   7.5997  15.9425  19.1800  20.4976  20.9138

          k =-0.1179-0.2357 0.2357 (   656 PWs)   bands (ev):

    -0.9880  10.4249  15.9968  20.3378  20.6871  22.2561

          k =-0.0589-0.1768 0.1768 (   665 PWs)   bands (ev):

    -2.0414  13.4940  16.3980  20.7632  22.0665  23.2995

          k =-0.0000-0.1179 0.1179 (   668 PWs)   bands (ev):

    -2.7271  16.4575  17.3939  20.9374  22.1556  23.1757

          k = 0.2357 0.0000 0.0000 (   665 PWs)   bands (ev):

    -2.2281  16.8427  16.8427  17.0167  20.0713  20.3087

          k = 0.2946 0.0589-0.0589 (   664 PWs)   bands (ev):

    -1.5448  13.8891  16.1553  17.4659  18.2766  20.4944

          k = 0.3536 0.1179-0.1179 (   664 PWs)   bands (ev):

    -0.4951  10.8605  15.7880  16.5206  17.4322  22.3026

          k = 0.4125 0.1768-0.1768 (   671 PWs)   bands (ev):

     0.9128   8.0573  15.1317  15.7407  17.4602  24.5437

          k =-0.2357-0.4714 0.4714 (   672 PWs)   bands (ev):

     2.6667   5.5428  14.0637  16.0139  17.7932  23.7709

          k =-0.1768-0.4125 0.4125 (   675 PWs)   bands (ev):

     3.3250   4.7722  13.3339  16.6079  18.4567  23.0897

          k =-0.1179-0.3536 0.3536 (   672 PWs)   bands (ev):

     1.4607   7.1686  12.9556  17.5217  19.4475  22.7100

          k =-0.0589-0.2946 0.2946 (   661 PWs)   bands (ev):

    -0.0649   9.8296  12.9670  18.7494  20.7435  22.6112

          k = 0.0000-0.2357 0.2357 (   662 PWs)   bands (ev):

    -1.2352  12.3421  13.7420  20.2669  22.2875  22.3918

          k = 0.3536 0.0000 0.0000 (   649 PWs)   bands (ev):

    -0.9882  15.3365  15.3546  15.3546  16.0982  18.8144

          k = 0.4125 0.0589-0.0589 (   666 PWs)   bands (ev):

    -0.0656  12.5130  14.2393  14.8765  16.1303  19.3265

          k = 0.4714 0.1179-0.1179 (   671 PWs)   bands (ev):

     1.2154   9.6976  12.7086  14.7198  16.2918  21.3411

          k =-0.1768-0.5303 0.5303 (   672 PWs)   bands (ev):

     2.8422   7.1165  11.5120  14.8842  16.5670  23.8869

          k =-0.1179-0.4714 0.4714 (   675 PWs)   bands (ev):

     4.6836   4.9416  10.6692  15.3700  17.1436  25.7083

          k =-0.0589-0.4125 0.4125 (   676 PWs)   bands (ev):

     2.8485   7.0370  10.2279  16.1775  18.0482  25.2369

          k = 0.0000-0.3536 0.3536 (   670 PWs)   bands (ev):

     1.2175   9.1072  10.6068  17.3058  19.2663  24.7872

          k = 0.4714 0.0000 0.0000 (   680 PWs)   bands (ev):

     0.7282  12.2333  14.1127  14.2888  14.2888  17.7735

          k = 0.5303 0.0589-0.0589 (   670 PWs)   bands (ev):

     1.8780  10.5485  11.6206  14.0234  15.1934  18.4902

          k =-0.1179-0.5893 0.5893 (   674 PWs)   bands (ev):

     3.3676   8.9007   9.3651  14.0792  15.5855  20.7330

          k =-0.0589-0.5303 0.5303 (   676 PWs)   bands (ev):

     5.1444   6.6326   8.3637  14.4564  16.1018  23.5205

          k =-0.0000-0.4714 0.4714 (   680 PWs)   bands (ev):

     4.5743   6.7980   8.2563  15.1556  16.9180  26.4559

          k = 0.5893 0.0000 0.0000 (   676 PWs)   bands (ev):

     2.8890   8.7732  13.3728  13.6496  13.6496  17.1080

          k =-0.0589-0.6482 0.6482 (   670 PWs)   bands (ev):

     4.2075   7.3643  11.1472  13.5972  14.7209  18.0564

          k = 0.0000-0.5893 0.5893 (   678 PWs)   bands (ev):

     5.4157   6.7457   8.8064  13.8659  15.3467  20.5258

          k =-0.7071 0.0000 0.0000 (   692 PWs)   bands (ev):

     4.9557   6.2722  13.1254  13.4366  13.4366  16.8799

          k = 0.2357 0.1179-0.0000 (   675 PWs)   bands (ev):

    -1.9792  14.4143  15.5749  19.8254  20.3999  21.6545

          k = 0.2946 0.1768-0.0589 (   658 PWs)   bands (ev):

    -1.0498  11.6695  14.6959  18.6524  20.0066  22.9383

          k = 0.3536 0.2357-0.1179 (   663 PWs)   bands (ev):

     0.2415   8.8024  14.4855  17.1732  19.9808  22.6884

          k =-0.2946-0.4125 0.5303 (   663 PWs)   bands (ev):

     1.8845   6.1882  14.6360  16.0154  20.1899  21.5868

          k =-0.2357-0.3536 0.4714 (   674 PWs)   bands (ev):

     3.7584   3.9882  14.9972  15.3185  20.5627  20.9054

          k = 0.3536 0.1179 0.0000 (   664 PWs)   bands (ev):

    -0.7414  12.8067  14.0543  16.3475  18.3257  20.4057

          k = 0.4125 0.1768-0.0589 (   668 PWs)   bands (ev):

     0.4244  10.2835  13.3436  14.7389  18.7762  21.9324

          k =-0.2357-0.4714 0.5893 (   673 PWs)   bands (ev):

     1.9431   7.6324  13.1772  13.6110  18.9974  23.8799

          k =-0.1768-0.4125 0.5303 (   672 PWs)   bands (ev):

     3.7956   5.2466  12.4037  13.8039  19.4476  23.2372

          k =-0.1179-0.3536 0.4714 (   673 PWs)   bands (ev):

     3.1468   5.9929  11.8106  14.5166  20.1940  22.6310

          k =-0.0589-0.2946 0.4125 (   666 PWs)   bands (ev):

     1.3994   8.4357  11.6037  15.5758  21.2218  22.2740

          k = 0.0000-0.2357 0.3536 (   660 PWs)   bands (ev):

    -0.0037  10.7256  12.1888  16.9618  21.6896  22.4077

          k = 0.4714 0.1179 0.0000 (   663 PWs)   bands (ev):

     0.9719  11.6526  12.3714  13.0818  17.2048  19.4240

          k =-0.1768-0.5303 0.6482 (   668 PWs)   bands (ev):

     2.3610   9.3452  11.0238  12.5259  17.8959  21.1648

          k =-0.1179-0.4714 0.5893 (   669 PWs)   bands (ev):

     4.0816   6.9241   9.9636  12.7349  18.3514  23.7430

          k =-0.0589-0.4125 0.5303 (   674 PWs)   bands (ev):

     4.7448   6.1058   9.2881  13.3382  19.0313  25.2457

          k =-0.0000-0.3536 0.4714 (   676 PWs)   bands (ev):

     2.9074   7.9520   9.4344  14.2908  20.0013  24.4485

          k =-0.1179-0.5893 0.7071 (   672 PWs)   bands (ev):

     3.1285   8.9995  10.9585  12.3324  16.5247  18.7987

          k =-0.0589-0.5303 0.6482 (   676 PWs)   bands (ev):

     4.6787   7.8142   8.9311  12.0504  17.4468  20.7622

          k =-0.0000-0.4714 0.5893 (   674 PWs)   bands (ev):

     6.1065   6.6251   7.5776  12.5029  18.1310  23.5767

          k =-0.7071 0.1179 0.0000 (   666 PWs)   bands (ev):

     5.1856   6.5140  10.7268  12.1030  16.2972  18.5849

          k =-0.2357-0.4714 0.7071 (   670 PWs)   bands (ev):

     1.7009   9.5700  11.0214  13.2193  20.6411  22.2532

          k =-0.1768-0.4125 0.6482 (   671 PWs)   bands (ev):

     3.3219   7.5011  10.6395  12.0479  21.4300  22.8675

          k =-0.1179-0.3536 0.5893 (   672 PWs)   bands (ev):

     5.1444   5.4057  10.8655  11.4242  21.8270  22.3190

          k =-0.1179-0.4714 0.7071 (   676 PWs)   bands (ev):

     3.8447   8.8766   9.5848  10.5355  19.9790  21.7543

          k =-0.0589-0.4125 0.6482 (   677 PWs)   bands (ev):

     5.6136   7.0247   8.7725  10.3147  21.0247  23.8566

          k = 0.0000-0.3536 0.5893 (   676 PWs)   bands (ev):

     5.0285   7.2595   8.6952  10.9658  21.8364  23.8428

          k =-0.7071 0.2357 0.0000 (   674 PWs)   bands (ev):

     5.8762   7.2203   8.6454  10.2042  19.7556  21.5702

          k =-0.7071 0.3536 0.0000 (   684 PWs)   bands (ev):

     7.0288   7.0288   8.0475   8.9504  23.6303  24.1359

     the Fermi energy is     7.7617 ev

!    total energy              =      -4.63566014 Ry
     estimated scf accuracy    <          1.1E-11 Ry
     smearing contrib. (-TS)   =       0.00001947 Ry
     internal energy E=F+TS    =      -4.63567961 Ry

     The total energy is F=E-TS. E is the sum of the following terms:
     one-electron contribution =       2.91355380 Ry
     hartree contribution      =       0.00732704 Ry
     xc contribution           =      -2.16366322 Ry
     ewald contribution        =      -5.39289723 Ry

     convergence has been achieved in   5 iterations

     Forces acting on atoms (cartesian axes, Ry/au):

     atom    1 type  1   force =     0.00000000    0.00000000    0.00000000

     Total force =     0.000000     Total SCF correction =     0.000000


     Computing stress (Cartesian axis) and pressure

          total   stress  (Ry/bohr**3)                   (kbar)     P=       -6.08
  -0.00004134   0.00000000   0.00000000           -6.08        0.00        0.00
   0.00000000  -0.00004134   0.00000000            0.00       -6.08        0.00
   0.00000000   0.00000000  -0.00004134            0.00        0.00       -6.08


     Writing all to output data dir ./tmp/kgrid_12.save/ :
     XML data file, charge density, pseudopotentials, collected wavefunctions

     init_run     :      0.11s CPU      0.13s WALL (       1 calls)
     electrons    :      1.11s CPU      1.56s WALL (       1 calls)
     forces       :      0.01s CPU      0.02s WALL (       1 calls)
     stress       :      0.04s CPU      0.04s WALL (       1 calls)

     Called by init_run:
     wfcinit      :      0.06s CPU      0.08s WALL (       1 calls)
     potinit      :      0.00s CPU      0.01s WALL (       1 calls)
     hinit0       :      0.04s CPU      0.04s WALL (       1 calls)

     Called by electrons:
     c_bands      :      0.95s CPU      1.34s WALL (       6 calls)
     sum_band     :      0.15s CPU      0.22s WALL (       6 calls)
     v_of_rho     :      0.01s CPU      0.01s WALL (       6 calls)
     mix_rho      :      0.00s CPU      0.00s WALL (       6 calls)

     Called by c_bands:
     init_us_2    :      0.03s CPU      0.03s WALL (    1080 calls)
     cegterg      :      0.91s CPU      1.29s WALL (     432 calls)

     Called by *egterg:
     cdiaghg      :      0.05s CPU      0.06s WALL (    1796 calls)
     h_psi        :      0.81s CPU      1.16s WALL (    1940 calls)
     g_psi        :      0.00s CPU      0.00s WALL (    1436 calls)

     Called by h_psi:
     h_psi:calbec :      0.05s CPU      0.06s WALL (    1940 calls)
     vloc_psi     :      0.75s CPU      1.07s WALL (    1940 calls)
                                        0.00s GPU  (    1940 calls)
     add_vuspsi   :      0.01s CPU      0.01s WALL (    1940 calls)

     General routines
     calbec       :      0.06s CPU      0.08s WALL (    3164 calls)
     fft          :      0.03s CPU      0.03s WALL (      85 calls)
     ffts         :      0.00s CPU      0.00s WALL (       6 calls)
     fftw         :      0.79s CPU      1.12s WALL (   18098 calls)

     Parallel routines

     PWSCF        :      1.33s CPU      1.82s WALL


   This run was terminated on:  19:40: 8   8Sep2026            

=------------------------------------------------------------------------------=
   JOB DONE.
=------------------------------------------------------------------------------=
