4
Properties=species:S:1:pos:R:3:initial_magmoms:R:1:forces:R:3:energies:R:1 energy=-18.43883058969003 stress="-3.244570649610581e-08 -2.9892229999324684e-22 1.354595322239152e-27 -2.9892229999324684e-22 -3.2415849569761164e-08 2.4564091763982712e-28 1.354595322239152e-27 2.4564091763982712e-28 6.306132752566387e-42" free_energy=-18.43883058969003 pbc="F F F"
C        0.00000000       0.00000006       0.00000000       1.00000000      -0.00000000       0.00000275      -0.00000000      -6.70496553
H        0.00000000       1.09246173      -0.00000000       0.00000000       0.00000000       0.00489232       0.00000000      -3.91128828
H        0.94609934      -0.54623089      -0.00000000       0.00000000       0.00424157      -0.00244753       0.00000000      -3.91128839
H       -0.94609934      -0.54623089       0.00000000       0.00000000      -0.00424157      -0.00244753       0.00000000      -3.91128839
