4
Properties=species:S:1:pos:R:3:initial_magmoms:R:1:energies:R:1:forces:R:3 energy=1.8106416264430871 free_energy=1.8106416264430871 pbc="F F F"
C        0.00000000       0.00000017      -0.00000000       1.00000000       0.25282948       0.00000000       0.00000001      -0.00000000
H       -0.00000000       1.13876578       0.00000000       0.00000000       0.51927072      -0.00000000       0.00015171       0.00000000
H        0.98619975      -0.56938298      -0.00000000       0.00000000       0.51927071       0.00013137      -0.00007586       0.00000000
H       -0.98619975      -0.56938298       0.00000000       0.00000000       0.51927071      -0.00013137      -0.00007586       0.00000000
