5
Properties=species:S:1:pos:R:3:energies:R:1:forces:R:3 energy=1.766778683307452 free_energy=1.766778683307452 pbc="F F F"
C       -0.00000000      -0.00000000      -0.00000000      -0.18641859       0.00000000       0.00000000      -0.00000000
H        0.66482426       0.66482426       0.66482426       0.48829932       0.00010930       0.00010930       0.00010930
H       -0.66482426      -0.66482426       0.66482426       0.48829932      -0.00010930      -0.00010930       0.00010930
H        0.66482426      -0.66482426      -0.66482426       0.48829932       0.00010930      -0.00010930      -0.00010930
H       -0.66482426       0.66482426      -0.66482426       0.48829932      -0.00010930       0.00010930      -0.00010930
