5
Properties=species:S:1:pos:R:3:forces:R:3:energies:R:1 energy=-23.91358857102609 stress="-1.2730397408408799e-08 2.2428212262311433e-21 -3.724540664499372e-23 2.2428212262311433e-21 -1.273039740840506e-08 1.980946690068827e-21 -3.724540664499372e-23 1.980946690068827e-21 -1.2730397408406631e-08" free_energy=-23.91358857102609 pbc="F F F"
C        0.00000000      -0.00000000       0.00000000       0.00000000       0.00000000      -0.00000000      -9.10056120
H        0.63109738       0.63109738       0.63109738       0.00059087       0.00059087       0.00059087      -3.70325684
H       -0.63109738      -0.63109738       0.63109738      -0.00059087      -0.00059087       0.00059087      -3.70325684
H        0.63109738      -0.63109738      -0.63109738       0.00059087      -0.00059087      -0.00059087      -3.70325684
H       -0.63109738       0.63109738      -0.63109738      -0.00059087       0.00059087      -0.00059087      -3.70325684
