
     Program PWSCF v.7.5 starts on  3Sep2026 at 16: 6:16 

     This program is part of the open-source Quantum ESPRESSO suite
     for quantum simulation of materials; please cite
         "P. Giannozzi et al., J. Phys.:Condens. Matter 21 395502 (2009);
         "P. Giannozzi et al., J. Phys.:Condens. Matter 29 465901 (2017);
         "P. Giannozzi et al., J. Chem. Phys. 152 154105 (2020);
          URL http://www.quantum-espresso.org", 
     in publications or presentations arising from this work. More details at
     http://www.quantum-espresso.org/quote

     Parallel version (MPI & OpenMP), running on       4 processor cores
     Number of MPI processes:                 4
     Threads/MPI process:                     1

     MPI processes distributed on     1 nodes
     1870 MiB available memory on the printing compute node when the environment starts

     Reading input from espresso.pwi
Warning: card &CELL ignored
Warning: card &FCP ignored
Warning: card &RISM ignored

     Current dimensions of program PWSCF are:
     Max number of different atomic species (ntypx) = 10
     Max number of k-points (npk) =  40000
     Max angular momentum in pseudopotentials (lmaxx) =  4
     Message from routine setup:
     using ibrav=0 with symmetry is DISCOURAGED, use correct ibrav instead

     R & G space division:  proc/nbgrp/npool/nimage =       4
     Subspace diagonalization in iterative solution of the eigenvalue problem:
     a serial algorithm will be used


     Parallelization info
     --------------------
     sticks:   dense  smooth     PW     G-vecs:    dense   smooth      PW
     Min         148     148     44                18002    18002    2885
     Max         149     149     49                18019    18019    2886
     Sum         595     595    187                72043    72043   11541

     Using Slab Decomposition



     bravais-lattice index     =            0
     lattice parameter (alat)  =       4.6607  a.u.
     unit-cell volume          =     533.2351 (a.u.)^3
     number of atoms/cell      =            2
     number of atomic types    =            1
     number of electrons       =         8.00
     number of Kohn-Sham states=            8
     kinetic-energy cutoff     =     100.0000  Ry
     charge density cutoff     =     400.0000  Ry
     scf convergence threshold =      1.0E-10
     mixing beta               =       0.7000
     number of iterations used =            8  plain     mixing
     Exchange-correlation= PBE
                           (   1   4   3   4   0   0   0)

     celldm(1)=   4.660677  celldm(2)=   0.000000  celldm(3)=   0.000000
     celldm(4)=   0.000000  celldm(5)=   0.000000  celldm(6)=   0.000000

     crystal axes: (cart. coord. in units of alat)
               a(1) = (   1.000000   0.000000   0.000000 )  
               a(2) = (  -0.500000   0.866025   0.000000 )  
               a(3) = (   0.000000   0.000000   6.081926 )  

     reciprocal axes: (cart. coord. in units 2 pi/alat)
               b(1) = (  1.000000  0.577350 -0.000000 )  
               b(2) = (  0.000000  1.154701  0.000000 )  
               b(3) = (  0.000000 -0.000000  0.164422 )  


     PseudoPot. # 1 for C  read from file:
     ../../C.upf
     MD5 check sum: 34a24e64c0a39f27c6c36b90a16ac686
     Pseudo is Norm-conserving + core correction, Zval =  4.0
     Generated using ONCVPSP code by D. R. Hamann
     Using radial grid of 1248 points,  4 beta functions with: 
                l(1) =   0
                l(2) =   0
                l(3) =   1
                l(4) =   1

     atomic species   valence    mass     pseudopotential
     C                 4.00    12.01100     C ( 1.00)

     24 Sym. Ops., with inversion, found (12 have fractional translation)



   Cartesian axes

     site n.     atom                  positions (alat units)
         1        C      tau(   1) = (   0.0000000   0.0000000   3.0409630  )
         2        C      tau(   2) = (   0.0000000   0.5773503   3.0409630  )

     number of k points=    75  Gaussian smearing, width (Ry)=  0.0100
                       cart. coord. in units 2pi/alat
        k(    1) = (   0.0000000   0.0000000   0.0000000), wk =   0.0027435
        k(    2) = (   0.0000000   0.0427667   0.0000000), wk =   0.0164609
        k(    3) = (   0.0000000   0.0855334   0.0000000), wk =   0.0164609
        k(    4) = (   0.0000000   0.1283001   0.0000000), wk =   0.0164609
        k(    5) = (   0.0000000   0.1710667   0.0000000), wk =   0.0164609
        k(    6) = (   0.0000000   0.2138334   0.0000000), wk =   0.0164609
        k(    7) = (   0.0000000   0.2566001   0.0000000), wk =   0.0164609
        k(    8) = (   0.0000000   0.2993668   0.0000000), wk =   0.0164609
        k(    9) = (   0.0000000   0.3421335   0.0000000), wk =   0.0164609
        k(   10) = (   0.0000000   0.3849002   0.0000000), wk =   0.0164609
        k(   11) = (   0.0000000   0.4276669   0.0000000), wk =   0.0164609
        k(   12) = (   0.0000000   0.4704336   0.0000000), wk =   0.0164609
        k(   13) = (   0.0000000   0.5132002   0.0000000), wk =   0.0164609
        k(   14) = (   0.0000000   0.5559669   0.0000000), wk =   0.0164609
        k(   15) = (   0.0370370   0.0641500   0.0000000), wk =   0.0164609
        k(   16) = (   0.0370370   0.1069167   0.0000000), wk =   0.0329218
        k(   17) = (   0.0370370   0.1496834   0.0000000), wk =   0.0329218
        k(   18) = (   0.0370370   0.1924501   0.0000000), wk =   0.0329218
        k(   19) = (   0.0370370   0.2352168   0.0000000), wk =   0.0329218
        k(   20) = (   0.0370370   0.2779835   0.0000000), wk =   0.0329218
        k(   21) = (   0.0370370   0.3207501   0.0000000), wk =   0.0329218
        k(   22) = (   0.0370370   0.3635168   0.0000000), wk =   0.0329218
        k(   23) = (   0.0370370   0.4062835   0.0000000), wk =   0.0329218
        k(   24) = (   0.0370370   0.4490502   0.0000000), wk =   0.0329218
        k(   25) = (   0.0370370   0.4918169   0.0000000), wk =   0.0329218
        k(   26) = (   0.0370370   0.5345836   0.0000000), wk =   0.0329218
        k(   27) = (   0.0370370   0.5773503   0.0000000), wk =   0.0164609
        k(   28) = (   0.0740741   0.1283001   0.0000000), wk =   0.0164609
        k(   29) = (   0.0740741   0.1710667   0.0000000), wk =   0.0329218
        k(   30) = (   0.0740741   0.2138334   0.0000000), wk =   0.0329218
        k(   31) = (   0.0740741   0.2566001   0.0000000), wk =   0.0329218
        k(   32) = (   0.0740741   0.2993668   0.0000000), wk =   0.0329218
        k(   33) = (   0.0740741   0.3421335   0.0000000), wk =   0.0329218
        k(   34) = (   0.0740741   0.3849002   0.0000000), wk =   0.0329218
        k(   35) = (   0.0740741   0.4276669   0.0000000), wk =   0.0329218
        k(   36) = (   0.0740741   0.4704336   0.0000000), wk =   0.0329218
        k(   37) = (   0.0740741   0.5132002   0.0000000), wk =   0.0329218
        k(   38) = (   0.0740741   0.5559669   0.0000000), wk =   0.0329218
        k(   39) = (   0.1111111   0.1924501   0.0000000), wk =   0.0164609
        k(   40) = (   0.1111111   0.2352168   0.0000000), wk =   0.0329218
        k(   41) = (   0.1111111   0.2779835   0.0000000), wk =   0.0329218
        k(   42) = (   0.1111111   0.3207501   0.0000000), wk =   0.0329218
        k(   43) = (   0.1111111   0.3635168   0.0000000), wk =   0.0329218
        k(   44) = (   0.1111111   0.4062835   0.0000000), wk =   0.0329218
        k(   45) = (   0.1111111   0.4490502   0.0000000), wk =   0.0329218
        k(   46) = (   0.1111111   0.4918169   0.0000000), wk =   0.0329218
        k(   47) = (   0.1111111   0.5345836   0.0000000), wk =   0.0329218
        k(   48) = (   0.1111111   0.5773503   0.0000000), wk =   0.0164609
        k(   49) = (   0.1481481   0.2566001   0.0000000), wk =   0.0164609
        k(   50) = (   0.1481481   0.2993668   0.0000000), wk =   0.0329218
        k(   51) = (   0.1481481   0.3421335   0.0000000), wk =   0.0329218
        k(   52) = (   0.1481481   0.3849002   0.0000000), wk =   0.0329218
        k(   53) = (   0.1481481   0.4276669   0.0000000), wk =   0.0329218
        k(   54) = (   0.1481481   0.4704336   0.0000000), wk =   0.0329218
        k(   55) = (   0.1481481   0.5132002   0.0000000), wk =   0.0329218
        k(   56) = (   0.1481481   0.5559669   0.0000000), wk =   0.0329218
        k(   57) = (   0.1851852   0.3207501   0.0000000), wk =   0.0164609
        k(   58) = (   0.1851852   0.3635168   0.0000000), wk =   0.0329218
        k(   59) = (   0.1851852   0.4062835   0.0000000), wk =   0.0329218
        k(   60) = (   0.1851852   0.4490502   0.0000000), wk =   0.0329218
        k(   61) = (   0.1851852   0.4918169   0.0000000), wk =   0.0329218
        k(   62) = (   0.1851852   0.5345836   0.0000000), wk =   0.0329218
        k(   63) = (   0.1851852   0.5773503   0.0000000), wk =   0.0164609
        k(   64) = (   0.2222222   0.3849002   0.0000000), wk =   0.0164609
        k(   65) = (   0.2222222   0.4276669   0.0000000), wk =   0.0329218
        k(   66) = (   0.2222222   0.4704336   0.0000000), wk =   0.0329218
        k(   67) = (   0.2222222   0.5132002   0.0000000), wk =   0.0329218
        k(   68) = (   0.2222222   0.5559669   0.0000000), wk =   0.0329218
        k(   69) = (   0.2592593   0.4490502   0.0000000), wk =   0.0164609
        k(   70) = (   0.2592593   0.4918169   0.0000000), wk =   0.0329218
        k(   71) = (   0.2592593   0.5345836   0.0000000), wk =   0.0329218
        k(   72) = (   0.2592593   0.5773503   0.0000000), wk =   0.0164609
        k(   73) = (   0.2962963   0.5132002   0.0000000), wk =   0.0164609
        k(   74) = (   0.2962963   0.5559669   0.0000000), wk =   0.0329218
        k(   75) = (   0.3333333   0.5773503   0.0000000), wk =   0.0054870

     Dense  grid:    72043 G-vectors     FFT dimensions: (  30,  30, 192)

     Estimated max dynamical RAM per process >      33.46 MB

     Estimated total dynamical RAM >     133.82 MB

     Initial potential from superposition of free atoms

     starting charge       7.9999, renormalised to       8.0000

     negative rho (up, down):  1.322E-06 0.000E+00
     Starting wfcs are    8 randomized atomic wfcs

     total cpu time spent up to now is        0.8 secs

     per-process dynamical memory:    40.3 Mb

     Self-consistent Calculation

     iteration #  1     ecut=   100.00 Ry     beta= 0.70
     Davidson diagonalization with overlap
     ethr =  1.00E-02,  avg # of iterations =  6.0

     total cpu time spent up to now is        2.4 secs

     total energy              =     -24.06833961 Ry
     estimated scf accuracy    <       0.19272664 Ry

     iteration #  2     ecut=   100.00 Ry     beta= 0.70
     Davidson diagonalization with overlap
     ethr =  2.41E-03,  avg # of iterations =  4.0

     total cpu time spent up to now is        3.4 secs

     total energy              =     -24.09541597 Ry
     estimated scf accuracy    <       0.00197758 Ry

     iteration #  3     ecut=   100.00 Ry     beta= 0.70
     Davidson diagonalization with overlap
     c_bands:  2 eigenvalues not converged
     ethr =  2.47E-05,  avg # of iterations = 10.8

     total cpu time spent up to now is        6.3 secs

     total energy              =     -24.09581375 Ry
     estimated scf accuracy    <       0.00015084 Ry

     iteration #  4     ecut=   100.00 Ry     beta= 0.70
     Davidson diagonalization with overlap
     c_bands:  1 eigenvalues not converged
     c_bands:  2 eigenvalues not converged
     ethr =  1.89E-06,  avg # of iterations =  5.7

     total cpu time spent up to now is        8.3 secs

     total energy              =     -24.09582694 Ry
     estimated scf accuracy    <       0.00000252 Ry

     iteration #  5     ecut=   100.00 Ry     beta= 0.70
     Davidson diagonalization with overlap
     ethr =  3.15E-08,  avg # of iterations =  3.2

     total cpu time spent up to now is       10.0 secs

     total energy              =     -24.09582823 Ry
     estimated scf accuracy    <       0.00000005 Ry

     iteration #  6     ecut=   100.00 Ry     beta= 0.70
     Davidson diagonalization with overlap
     ethr =  6.02E-10,  avg # of iterations =  3.4

     total cpu time spent up to now is       11.7 secs

     total energy              =     -24.09582826 Ry
     estimated scf accuracy    <          1.5E-09 Ry

     iteration #  7     ecut=   100.00 Ry     beta= 0.70
     Davidson diagonalization with overlap
     ethr =  1.93E-11,  avg # of iterations =  2.8

     total cpu time spent up to now is       13.4 secs

     End of self-consistent calculation

          k = 0.0000 0.0000 0.0000 (  9073 PWs)   bands (ev):

   -21.2555  -9.3446  -4.7785  -4.7785   1.5404   2.4402   3.0146   4.8452

          k = 0.0000 0.0428 0.0000 (  9059 PWs)   bands (ev):

   -21.2231  -9.3057  -4.9127  -4.8495   1.5844   2.4846   3.0594   4.8893

          k = 0.0000 0.0855 0.0000 (  9059 PWs)   bands (ev):

   -21.1261  -9.1895  -5.2988  -5.0506   1.7164   2.6177   3.1938   5.0215

          k = 0.0000 0.1283 0.0000 (  9041 PWs)   bands (ev):

   -20.9646  -8.9964  -5.8949  -5.3520   1.9365   2.8394   3.4179   5.2416

          k = 0.0000 0.1711 0.0000 (  9047 PWs)   bands (ev):

   -20.7389  -8.7275  -6.6492  -5.7174   2.2445   3.1493   3.7316   5.5488

          k = 0.0000 0.2138 0.0000 (  9035 PWs)   bands (ev):

   -20.4497  -8.3845  -7.5129  -6.1126   2.6404   3.5465   4.1348   5.9401

          k = 0.0000 0.2566 0.0000 (  9029 PWs)   bands (ev):

   -20.0975  -8.4455  -7.9699  -6.5099   3.1237   4.0286   4.6273   6.2141

          k = 0.0000 0.2994 0.0000 (  9019 PWs)   bands (ev):

   -19.6834  -9.4155  -7.4875  -6.8886   3.6938   4.5718   5.2083   5.3070

          k = 0.0000 0.3421 0.0000 (  9007 PWs)   bands (ev):

   -19.2086 -10.3985  -7.2333  -6.9430   4.2072   4.3497   5.3108   5.8701

          k = 0.0000 0.3849 0.0000 (  9017 PWs)   bands (ev):

   -18.6751 -11.3759  -7.5333  -6.3461   3.1956   5.0872   6.0406   6.0571

          k = 0.0000 0.4277 0.0000 (  9009 PWs)   bands (ev):

   -18.0857 -12.3327  -7.7809  -5.7135   2.1994   5.8115   6.0456   6.8691

          k = 0.0000 0.4704 0.0000 (  9001 PWs)   bands (ev):

   -17.4465 -13.2541  -7.9706  -5.0775   1.2771   5.8175   6.8567   7.7819

          k = 0.0000 0.5132 0.0000 (  8988 PWs)   bands (ev):

   -16.7738 -14.1181  -8.0989  -4.5060   0.5086   5.7577   7.8429   8.7730

          k = 0.0000 0.5560 0.0000 (  8976 PWs)   bands (ev):

   -16.1537 -14.8347  -8.1635  -4.1350   0.0374   5.7255   8.9072   9.8281

          k = 0.0370 0.0642 0.0000 (  9067 PWs)   bands (ev):

   -21.1584  -9.2282  -5.1670  -4.9914   1.6724   2.5734   3.1490   4.9774

          k = 0.0370 0.1069 0.0000 (  9045 PWs)   bands (ev):

   -21.0291  -9.0735  -5.6441  -5.2568   1.8485   2.7508   3.3283   5.1536

          k = 0.0370 0.1497 0.0000 (  9043 PWs)   bands (ev):

   -20.8356  -8.8425  -6.3041  -5.6057   2.1126   3.0166   3.5972   5.4174

          k = 0.0370 0.1925 0.0000 (  9055 PWs)   bands (ev):

   -20.5781  -8.5365  -7.1000  -5.9994   2.4646   3.3703   3.9557   5.7676

          k = 0.0370 0.2352 0.0000 (  9032 PWs)   bands (ev):

   -20.2574  -8.1576  -7.9881  -6.4061   2.9043   3.8105   4.4036   6.1916

          k = 0.0370 0.2780 0.0000 (  9027 PWs)   bands (ev):

   -19.8743  -8.9321  -7.7087  -6.8016   3.4311   4.3312   4.9407   5.7384

          k = 0.0370 0.3208 0.0000 (  9011 PWs)   bands (ev):

   -19.4298  -9.9034  -7.1947  -7.1685   4.0445   4.6349   5.0565   5.5653

          k = 0.0370 0.3635 0.0000 (  9040 PWs)   bands (ev):

   -18.9256 -10.8801  -7.4945  -6.6227   3.6830   4.7426   5.6905   6.2106

          k = 0.0370 0.4063 0.0000 (  9010 PWs)   bands (ev):

   -18.3640 -11.8449  -7.7706  -6.0054   2.6762   5.5165   6.1508   6.4731

          k = 0.0370 0.4491 0.0000 (  8999 PWs)   bands (ev):

   -17.7491 -12.7830  -7.9908  -5.3654   1.7139   5.9906   6.4408   7.3435

          k = 0.0370 0.4918 0.0000 (  8984 PWs)   bands (ev):

   -17.0901 -13.6776  -8.1507  -4.7492   0.8583   5.9315   7.3712   8.2942

          k = 0.0370 0.5346 0.0000 (  8971 PWs)   bands (ev):

   -16.4210 -14.4900  -8.2477  -4.2549   0.2167   5.8846   8.3976   9.3162

          k = 0.0370 0.5774 0.0000 (  8970 PWs)   bands (ev):

   -15.9974 -14.9616  -8.2802  -4.0525  -0.0353   5.8684   9.4279   9.5751

          k = 0.0741 0.1283 0.0000 (  9023 PWs)   bands (ev):

   -20.8678  -8.8809  -6.1602  -5.5949   2.0686   2.9723   3.5524   5.3736

          k = 0.0741 0.1711 0.0000 (  9048 PWs)   bands (ev):

   -20.6424  -8.6127  -6.8264  -6.0080   2.3768   3.2821   3.8661   5.6808

          k = 0.0741 0.2138 0.0000 (  9039 PWs)   bands (ev):

   -20.3536  -8.2706  -7.6156  -6.4450   2.7727   3.6793   4.2695   6.0728

          k = 0.0741 0.2566 0.0000 (  9032 PWs)   bands (ev):

   -20.0019  -8.4921  -7.8570  -6.8731   3.2562   4.1617   4.7623   6.0706

          k = 0.0741 0.2994 0.0000 (  9032 PWs)   bands (ev):

   -19.5884  -9.4218  -7.3757  -7.2728   3.8266   4.6985   5.1633   5.3442

          k = 0.0741 0.3421 0.0000 (  9032 PWs)   bands (ev):

   -19.1144 -10.3763  -7.6316  -6.8325   4.1102   4.4830   5.4218   6.0129

          k = 0.0741 0.3849 0.0000 (  9024 PWs)   bands (ev):

   -18.5819 -11.3336  -7.9406  -6.2366   3.1182   5.2234   6.1584   6.6023

          k = 0.0741 0.4277 0.0000 (  9010 PWs)   bands (ev):

   -17.9940 -12.2758  -8.1938  -5.6043   2.1435   6.0345   6.5230   6.9843

          k = 0.0741 0.4704 0.0000 (  8991 PWs)   bands (ev):

   -17.3567 -13.1868  -8.3869  -4.9674   1.2367   6.3823   6.9923   7.8903

          k = 0.0741 0.5132 0.0000 (  8981 PWs)   bands (ev):

   -16.6864 -14.0431  -8.5172  -4.3927   0.4760   6.3289   7.9697   8.8675

          k = 0.0741 0.5560 0.0000 (  8966 PWs)   bands (ev):

   -16.0695 -14.7540  -8.5827  -4.0173   0.0059   6.2972   9.0285   9.8866

          k = 0.1111 0.1925 0.0000 (  9037 PWs)   bands (ev):

   -20.3856  -8.3083  -7.4534  -6.4971   2.7289   3.6355   4.2248   6.0311

          k = 0.1111 0.2352 0.0000 (  9047 PWs)   bands (ev):

   -20.0658  -8.1872  -7.9314  -6.9996   3.1687   4.0758   4.6731   6.2599

          k = 0.1111 0.2780 0.0000 (  9040 PWs)   bands (ev):

   -19.6837  -9.0142  -7.4849  -7.4676   3.6958   4.5978   5.2107   5.3926

          k = 0.1111 0.3208 0.0000 (  9024 PWs)   bands (ev):

   -19.2407  -9.9039  -7.8826  -6.9734   4.3094   4.4405   5.2345   5.8374

          k = 0.1111 0.3635 0.0000 (  9008 PWs)   bands (ev):

   -18.7384 -10.8247  -8.2388  -6.4038   3.4887   5.0087   5.9269   6.5512

          k = 0.1111 0.4063 0.0000 (  8992 PWs)   bands (ev):

   -18.1793 -11.7509  -8.5338  -5.7882   2.5309   5.7912   6.7072   7.1984

          k = 0.1111 0.4491 0.0000 (  8995 PWs)   bands (ev):

   -17.5676 -12.6620  -8.7653  -5.1480   1.6080   6.6447   7.1295   7.5658

          k = 0.1111 0.4918 0.0000 (  8993 PWs)   bands (ev):

   -16.9130 -13.5374  -8.9320  -4.5278   0.7770   7.0095   7.6337   8.4921

          k = 0.1111 0.5346 0.0000 (  8971 PWs)   bands (ev):

   -16.2496 -14.3358  -9.0324  -4.0243   0.1435   6.9694   8.6459   9.4581

          k = 0.1111 0.5774 0.0000 (  8986 PWs)   bands (ev):

   -15.8312 -14.7997  -9.0660  -3.8155  -0.1092   6.9536   9.6540   9.8174

          k = 0.1481 0.2566 0.0000 (  9031 PWs)   bands (ev):

   -19.7155  -8.8305  -7.5831  -7.5214   3.6522   4.5589   5.1662   5.4801

          k = 0.1481 0.2994 0.0000 (  9027 PWs)   bands (ev):

   -19.3040  -9.5644  -8.1195  -7.0441   4.2225   4.6308   5.1302   5.7487

          k = 0.1481 0.3421 0.0000 (  9023 PWs)   bands (ev):

   -18.8326 -10.3807  -8.5720  -6.5050   3.7419   4.8789   5.7825   6.4201

          k = 0.1481 0.3849 0.0000 (  9003 PWs)   bands (ev):

   -18.3034 -11.2468  -8.9382  -5.9128   2.8318   5.6201   6.5163   7.1791

          k = 0.1481 0.4277 0.0000 (  8994 PWs)   bands (ev):

   -17.7199 -12.1291  -9.2250  -5.2824   1.9288   6.4436   7.3251   7.9595

          k = 0.1481 0.4704 0.0000 (  8993 PWs)   bands (ev):

   -17.0883 -12.9997  -9.4377  -4.6428   1.0734   7.3400   7.9210   8.1957

          k = 0.1481 0.5132 0.0000 (  8979 PWs)   bands (ev):

   -16.4255 -13.8283  -9.5786  -4.0573   0.3383   7.8215   8.3557   9.0929

          k = 0.1481 0.5560 0.0000 (  8985 PWs)   bands (ev):

   -15.8177 -14.5208  -9.6489  -3.6657  -0.1298   7.7977   9.3880   9.8740

          k = 0.1852 0.3208 0.0000 (  9019 PWs)   bands (ev):

   -18.8640 -10.1740  -8.7445  -6.5389   3.8330   4.8355   5.7327   6.3758

          k = 0.1852 0.3635 0.0000 (  8997 PWs)   bands (ev):

   -18.3657 -10.8728  -9.2698  -5.9757   2.9989   5.5337   6.4180   7.0917

          k = 0.1852 0.4063 0.0000 (  9001 PWs)   bands (ev):

   -17.8118 -11.6518  -9.6716  -5.3651   2.1502   6.3154   7.1752   7.8952

          k = 0.1852 0.4491 0.0000 (  8980 PWs)   bands (ev):

   -17.2070 -12.4710  -9.9636  -4.7258   1.3142   7.1772   7.9867   8.7670

          k = 0.1852 0.4918 0.0000 (  8979 PWs)   bands (ev):

   -16.5615 -13.2885 -10.1628  -4.0968   0.5378   8.1102   8.8050   8.8417

          k = 0.1852 0.5346 0.0000 (  8973 PWs)   bands (ev):

   -15.9093 -14.0504 -10.2793  -3.5705  -0.0800   8.7550   9.1495   9.4888

          k = 0.1852 0.5774 0.0000 (  8962 PWs)   bands (ev):

   -15.4990 -14.4983 -10.3177  -3.3437  -0.3379   8.7510   9.7621  10.0869

          k = 0.2222 0.3849 0.0000 (  9023 PWs)   bands (ev):

   -17.8425 -11.4225  -9.8929  -5.3930   2.2299   6.2723   7.1239   7.8517

          k = 0.2222 0.4277 0.0000 (  9003 PWs)   bands (ev):

   -17.2669 -12.0670 -10.3717  -4.7690   1.4505   7.0919   7.8769   8.6987

          k = 0.2222 0.4704 0.0000 (  8979 PWs)   bands (ev):

   -16.6458 -12.7899 -10.6959  -4.1271   0.6871   7.9872   8.6152   9.6224

          k = 0.2222 0.5132 0.0000 (  8959 PWs)   bands (ev):

   -15.9963 -13.5330 -10.8930  -3.5198  -0.0040   8.9449   9.1809   9.8186

          k = 0.2222 0.5560 0.0000 (  8971 PWs)   bands (ev):

   -15.4011 -14.1821 -10.9864  -3.0875  -0.4792   9.4230   9.7281   9.9941

          k = 0.2593 0.4491 0.0000 (  8989 PWs)   bands (ev):

   -16.6743 -12.5437 -10.9550  -4.1382   0.7426   7.9447   8.5480   9.5876

          k = 0.2593 0.4918 0.0000 (  8956 PWs)   bands (ev):

   -16.0446 -13.1201 -11.3539  -3.4991   0.0499   8.8634   9.0091  10.5486

          k = 0.2593 0.5346 0.0000 (  8945 PWs)   bands (ev):

   -15.4098 -13.7508 -11.5698  -2.9229  -0.5581   9.1575   9.8199  10.7284

          k = 0.2593 0.5774 0.0000 (  8956 PWs)   bands (ev):

   -15.0017 -14.1632 -11.6368  -2.6417  -0.8499   9.1734  10.6070  10.6604

          k = 0.2963 0.5132 0.0000 (  8958 PWs)   bands (ev):

   -15.4206 -13.5198 -11.8449  -2.8663  -0.5829   9.0606   9.7812  11.3051

          k = 0.2963 0.5560 0.0000 (  8951 PWs)   bands (ev):

   -14.8361 -13.9907 -12.0942  -2.3183  -1.1291   9.0076  10.6584  11.2157

          k = 0.3333 0.5774 0.0000 (  8946 PWs)   bands (ev):

   -14.3410 -14.3410 -12.3037  -1.7174  -1.7174   8.9410  11.1792  11.1793

     the Fermi energy is    -1.7174 ev

!    total energy              =     -24.09582826 Ry
     estimated scf accuracy    <          4.5E-12 Ry
     smearing contrib. (-TS)   =      -0.00003096 Ry
     internal energy E=F+TS    =     -24.09579731 Ry

     The total energy is F=E-TS. E is the sum of the following terms:
     one-electron contribution =    -156.96431491 Ry
     hartree contribution      =      79.97656353 Ry
     xc contribution           =      -8.57813652 Ry
     ewald contribution        =      61.47009060 Ry

     convergence has been achieved in   7 iterations

     Forces acting on atoms (cartesian axes, Ry/au):

     atom    1 type  1   force =     0.00000000    0.00000000    0.00000000
     atom    2 type  1   force =     0.00000000    0.00000000    0.00000000

     Total force =     0.000000     Total SCF correction =     0.000000


     Computing stress (Cartesian axis) and pressure

          total   stress  (Ry/bohr**3)                   (kbar)     P=        0.07
   0.00000073   0.00000000   0.00000000            0.11        0.00        0.00
   0.00000000   0.00000073   0.00000000            0.00        0.11        0.00
  -0.00000000  -0.00000000  -0.00000003           -0.00       -0.00       -0.00


     Writing all to output data dir ./tmp/graphene_none.save/ :
     XML data file, charge density, pseudopotentials, collected wavefunctions

     init_run     :      0.73s CPU      0.79s WALL (       1 calls)
     electrons    :     11.99s CPU     12.60s WALL (       1 calls)
     forces       :      0.10s CPU      0.10s WALL (       1 calls)
     stress       :      0.43s CPU      0.44s WALL (       1 calls)

     Called by init_run:
     wfcinit      :      0.37s CPU      0.42s WALL (       1 calls)
     potinit      :      0.02s CPU      0.02s WALL (       1 calls)
     hinit0       :      0.22s CPU      0.22s WALL (       1 calls)

     Called by electrons:
     c_bands      :     10.38s CPU     10.90s WALL (       7 calls)
     sum_band     :      1.50s CPU      1.58s WALL (       7 calls)
     v_of_rho     :      0.10s CPU      0.11s WALL (       8 calls)
     mix_rho      :      0.02s CPU      0.02s WALL (       7 calls)

     Called by c_bands:
     init_us_2    :      0.32s CPU      0.33s WALL (    1275 calls)
     cegterg      :     10.03s CPU     10.53s WALL (     525 calls)

     Called by *egterg:
     cdiaghg      :      0.18s CPU      0.19s WALL (    3214 calls)
     h_psi        :      9.13s CPU      9.63s WALL (    3289 calls)
     g_psi        :      0.07s CPU      0.08s WALL (    2689 calls)

     Called by h_psi:
     h_psi:calbec :      0.33s CPU      0.35s WALL (    3289 calls)
     vloc_psi     :      8.55s CPU      9.02s WALL (    3289 calls)
                                        0.00s GPU  (    3289 calls)
     add_vuspsi   :      0.19s CPU      0.20s WALL (    3289 calls)

     General routines
     calbec       :      0.50s CPU      0.52s WALL (    4564 calls)
     fft          :      0.27s CPU      0.28s WALL (     104 calls)
     ffts         :      0.00s CPU      0.00s WALL (       7 calls)
     fftw         :      8.76s CPU      9.24s WALL (   32622 calls)

     Parallel routines

     PWSCF        :     13.33s CPU     14.06s WALL


   This run was terminated on:  16: 6:30   3Sep2026            

=------------------------------------------------------------------------------=
   JOB DONE.
=------------------------------------------------------------------------------=
