
     Program PWSCF v.7.5 starts on  8Sep2026 at 19:47:22 

     This program is part of the open-source Quantum ESPRESSO suite
     for quantum simulation of materials; please cite
         "P. Giannozzi et al., J. Phys.:Condens. Matter 21 395502 (2009);
         "P. Giannozzi et al., J. Phys.:Condens. Matter 29 465901 (2017);
         "P. Giannozzi et al., J. Chem. Phys. 152 154105 (2020);
          URL http://www.quantum-espresso.org", 
     in publications or presentations arising from this work. More details at
     http://www.quantum-espresso.org/quote

     Parallel version (MPI & OpenMP), running on       8 processor cores
     Number of MPI processes:                 4
     Threads/MPI process:                     2

     MPI processes distributed on     1 nodes
     1891 MiB available memory on the printing compute node when the environment starts

     Reading input from espresso.pwi
Warning: card &CELL ignored
Warning: card &FCP ignored
Warning: card &RISM ignored

     Current dimensions of program PWSCF are:
     Max number of different atomic species (ntypx) = 10
     Max number of k-points (npk) =  40000
     Max angular momentum in pseudopotentials (lmaxx) =  4
     Message from routine setup:
     using ibrav=0 with symmetry is DISCOURAGED, use correct ibrav instead

     R & G space division:  proc/nbgrp/npool/nimage =       4
     Subspace diagonalization in iterative solution of the eigenvalue problem:
     a serial algorithm will be used


     Parallelization info
     --------------------
     sticks:   dense  smooth     PW     G-vecs:    dense   smooth      PW
     Min         598     598    148                72024    72024    8986
     Max         599     599    149                72037    72037    8997
     Sum        2395    2395    595               288127   288127   35965

     Using Slab Decomposition



     bravais-lattice index     =            0
     lattice parameter (alat)  =       9.3214  a.u.
     unit-cell volume          =    2132.9405 (a.u.)^3
     number of atoms/cell      =            9
     number of atomic types    =            2
     number of electrons       =        33.00
     number of Kohn-Sham states=           21
     kinetic-energy cutoff     =     100.0000  Ry
     charge density cutoff     =     400.0000  Ry
     scf convergence threshold =      1.0E-10
     mixing beta               =       0.7000
     number of iterations used =            8  plain     mixing
     Exchange-correlation= PBE
                           (   1   4   3   4   0   0   0)

     celldm(1)=   9.321354  celldm(2)=   0.000000  celldm(3)=   0.000000
     celldm(4)=   0.000000  celldm(5)=   0.000000  celldm(6)=   0.000000

     crystal axes: (cart. coord. in units of alat)
               a(1) = (   1.000000   0.000000   0.000000 )  
               a(2) = (  -0.500000   0.866025   0.000000 )  
               a(3) = (   0.000000   0.000000   3.040963 )  

     reciprocal axes: (cart. coord. in units 2 pi/alat)
               b(1) = (  1.000000  0.577350 -0.000000 )  
               b(2) = (  0.000000  1.154701  0.000000 )  
               b(3) = (  0.000000 -0.000000  0.328843 )  


     PseudoPot. # 1 for C  read from file:
     /home/danil/home/Molecular-and-Materials-Modeling-2026-Challenges/pseudopotentials/C.upf
     MD5 check sum: 34a24e64c0a39f27c6c36b90a16ac686
     Pseudo is Norm-conserving + core correction, Zval =  4.0
     Generated using ONCVPSP code by D. R. Hamann
     Using radial grid of 1248 points,  4 beta functions with: 
                l(1) =   0
                l(2) =   0
                l(3) =   1
                l(4) =   1

     PseudoPot. # 2 for H  read from file:
     /home/danil/home/Molecular-and-Materials-Modeling-2026-Challenges/pseudopotentials/H.upf
     MD5 check sum: e96aa7e3e4a958db16958554ea960e2a
     Pseudo is Norm-conserving, Zval =  1.0
     Generated using ONCVPSP code by D. R. Hamann
     Using radial grid of 1166 points,  3 beta functions with: 
                l(1) =   0
                l(2) =   0
                l(3) =   1

     atomic species   valence    mass     pseudopotential
     C                 4.00    12.01100     C ( 1.00)
     H                 1.00     1.00800     H ( 1.00)

     Starting magnetic structure 
     atomic species   magnetization
     C               0.000
     H               1.000

      6 Sym. Ops. (no inversion) found ( 4 have fractional translation)



   Cartesian axes

     site n.     atom                  positions (alat units)
         1        C      tau(   1) = (  -0.0040325   0.0023281   1.4950491  )
         2        C      tau(   2) = (  -0.2500001   0.4283564   1.4950491  )
         3        C      tau(   3) = (   0.5040325   0.0023281   1.4950491  )
         4        C      tau(   4) = (   0.2499999   0.4330127   1.5896426  )
         5        C      tau(   5) = (  -0.0068923   0.2846958   1.5033544  )
         6        C      tau(   6) = (  -0.2500001   0.7216878   1.5305331  )
         7        C      tau(   7) = (   0.5068922   0.2846958   1.5033544  )
         8        C      tau(   8) = (   0.2499999   0.7296463   1.5033544  )
         9        H      tau(   9) = (   0.2499999   0.4330127   1.8122239  )

     --------------------------------------------
     DFT-D3 Dispersion Correction (3-body terms):
     --------------------------------------------
       Reference C6 values for interpolation: 

         atom   Coordination number   C6
         H          0.912             6.05
         H          0.000            15.18
         C          0.000            98.23
         C          0.987            86.49
         C          1.998            58.72
         C          2.999            51.56
         C          3.984            36.41

       Values used:

         atom   Coordination number  R0_AB[au]  C6      C8
         C          3.293            2.750     48.71   1408.65
         C          3.293            2.750     48.71   1408.65
         C          3.293            2.750     48.71   1408.65
         C          4.226            2.750     36.45   1054.31
         C          3.318            2.750     48.21   1394.37
         C          3.296            2.750     48.64   1406.79
         C          3.318            2.750     48.21   1394.37
         C          3.318            2.750     48.21   1394.36
         H          1.012            2.062      6.17     74.60

         Molecular C6 ( Ry / a.u.^6 ) =      3276.00


     number of k points=     1  Gaussian smearing, width (Ry)=  0.0100
                       cart. coord. in units 2pi/alat
        k(    1) = (   0.0000000   0.0000000   0.0000000), wk =   1.0000000

     Dense  grid:   288127 G-vectors     FFT dimensions: (  60,  60, 192)

     Estimated max dynamical RAM per process >     103.29 MB

     Estimated total dynamical RAM >     413.14 MB
     Generating pointlists ...
     new r_m :   0.0918 (alat units)  0.8558 (a.u.) for type    1
     new r_m :   0.0918 (alat units)  0.8558 (a.u.) for type    2

     Initial potential from superposition of free atoms

     starting charge      32.9996, renormalised to      33.0000

     negative rho (up, down):  2.050E-06 2.565E-06
     Starting wfcs are   33 randomized atomic wfcs

     total cpu time spent up to now is        0.7 secs

     per-process dynamical memory:    87.5 Mb

     Self-consistent Calculation

     iteration #  1     ecut=   100.00 Ry     beta= 0.70
     Davidson diagonalization with overlap
     ethr =  1.00E-02,  avg # of iterations =  4.5

     total cpu time spent up to now is        1.3 secs

     total energy              =     -96.78370143 Ry
     estimated scf accuracy    <       0.98049775 Ry

     total magnetization       =     0.59 Bohr mag/cell
     absolute magnetization    =     0.74 Bohr mag/cell

     iteration #  2     ecut=   100.00 Ry     beta= 0.70
     Davidson diagonalization with overlap
     ethr =  2.97E-03,  avg # of iterations =  6.0

     total cpu time spent up to now is        2.6 secs

     total energy              =     -96.95645134 Ry
     estimated scf accuracy    <       0.04395226 Ry

     total magnetization       =     1.00 Bohr mag/cell
     absolute magnetization    =     1.11 Bohr mag/cell

     iteration #  3     ecut=   100.00 Ry     beta= 0.70
     Davidson diagonalization with overlap
     ethr =  1.33E-04,  avg # of iterations = 11.5

     total cpu time spent up to now is        3.5 secs

     total energy              =     -96.96871355 Ry
     estimated scf accuracy    <       0.00581862 Ry

     total magnetization       =     1.00 Bohr mag/cell
     absolute magnetization    =     1.16 Bohr mag/cell

     iteration #  4     ecut=   100.00 Ry     beta= 0.70
     Davidson diagonalization with overlap
     ethr =  1.76E-05,  avg # of iterations =  4.0

     total cpu time spent up to now is        4.3 secs

     total energy              =     -96.97107816 Ry
     estimated scf accuracy    <       0.00324859 Ry

     total magnetization       =     1.00 Bohr mag/cell
     absolute magnetization    =     1.21 Bohr mag/cell

     iteration #  5     ecut=   100.00 Ry     beta= 0.70
     Davidson diagonalization with overlap
     ethr =  9.84E-06,  avg # of iterations =  2.5

     total cpu time spent up to now is        4.7 secs

     total energy              =     -96.97213061 Ry
     estimated scf accuracy    <       0.00020309 Ry

     total magnetization       =     1.00 Bohr mag/cell
     absolute magnetization    =     1.24 Bohr mag/cell

     iteration #  6     ecut=   100.00 Ry     beta= 0.70
     Davidson diagonalization with overlap
     ethr =  6.15E-07,  avg # of iterations =  5.5

     negative rho (up, down):  0.000E+00 4.936E-08

     total cpu time spent up to now is        5.6 secs

     total energy              =     -96.97233683 Ry
     estimated scf accuracy    <       0.00006696 Ry

     total magnetization       =     1.00 Bohr mag/cell
     absolute magnetization    =     1.28 Bohr mag/cell

     iteration #  7     ecut=   100.00 Ry     beta= 0.70
     Davidson diagonalization with overlap
     ethr =  2.03E-07,  avg # of iterations =  4.0

     negative rho (up, down):  0.000E+00 7.326E-08

     total cpu time spent up to now is        6.5 secs

     total energy              =     -96.97240063 Ry
     estimated scf accuracy    <       0.00001041 Ry

     total magnetization       =     1.00 Bohr mag/cell
     absolute magnetization    =     1.30 Bohr mag/cell

     iteration #  8     ecut=   100.00 Ry     beta= 0.70
     Davidson diagonalization with overlap
     ethr =  3.15E-08,  avg # of iterations =  5.0

     total cpu time spent up to now is        7.3 secs

     total energy              =     -96.97243271 Ry
     estimated scf accuracy    <       0.00000295 Ry

     total magnetization       =     1.00 Bohr mag/cell
     absolute magnetization    =     1.33 Bohr mag/cell

     iteration #  9     ecut=   100.00 Ry     beta= 0.70
     Davidson diagonalization with overlap
     ethr =  8.94E-09,  avg # of iterations =  4.0

     total cpu time spent up to now is        8.1 secs

     total energy              =     -96.97243914 Ry
     estimated scf accuracy    <       0.00000107 Ry

     total magnetization       =     1.00 Bohr mag/cell
     absolute magnetization    =     1.34 Bohr mag/cell

     iteration # 10     ecut=   100.00 Ry     beta= 0.70
     Davidson diagonalization with overlap
     ethr =  3.24E-09,  avg # of iterations =  4.0

     total cpu time spent up to now is        8.6 secs

     total energy              =     -96.97244097 Ry
     estimated scf accuracy    <       0.00000031 Ry

     total magnetization       =     1.00 Bohr mag/cell
     absolute magnetization    =     1.35 Bohr mag/cell

     iteration # 11     ecut=   100.00 Ry     beta= 0.70
     Davidson diagonalization with overlap
     ethr =  9.54E-10,  avg # of iterations =  5.0

     total cpu time spent up to now is        9.3 secs

     total energy              =     -96.97244301 Ry
     estimated scf accuracy    <       0.00000004 Ry

     total magnetization       =     1.00 Bohr mag/cell
     absolute magnetization    =     1.36 Bohr mag/cell

     iteration # 12     ecut=   100.00 Ry     beta= 0.70
     Davidson diagonalization with overlap
     ethr =  1.21E-10,  avg # of iterations =  5.5

     total cpu time spent up to now is       11.2 secs

     total energy              =     -96.97244325 Ry
     estimated scf accuracy    <          4.6E-09 Ry

     total magnetization       =     1.00 Bohr mag/cell
     absolute magnetization    =     1.36 Bohr mag/cell

     iteration # 13     ecut=   100.00 Ry     beta= 0.70
     Davidson diagonalization with overlap
     ethr =  1.39E-11,  avg # of iterations =  5.0

     total cpu time spent up to now is       11.9 secs

     total energy              =     -96.97244326 Ry
     estimated scf accuracy    <          3.8E-10 Ry

     total magnetization       =     1.00 Bohr mag/cell
     absolute magnetization    =     1.36 Bohr mag/cell

     iteration # 14     ecut=   100.00 Ry     beta= 0.70
     Davidson diagonalization with overlap
     ethr =  1.14E-12,  avg # of iterations =  5.0

     Magnetic moment per site  (integrated on atomic sphere of radius R)
     atom   1 (R=0.092)  charge=  0.8956  magn= -0.0195
     atom   2 (R=0.092)  charge=  0.8956  magn= -0.0195
     atom   3 (R=0.092)  charge=  0.8956  magn= -0.0195
     atom   4 (R=0.092)  charge=  0.8697  magn= -0.0058
     atom   5 (R=0.092)  charge=  0.8818  magn=  0.0331
     atom   6 (R=0.092)  charge=  0.8741  magn=  0.1505
     atom   7 (R=0.092)  charge=  0.8818  magn=  0.0331
     atom   8 (R=0.092)  charge=  0.8818  magn=  0.0331
     atom   9 (R=0.092)  charge=  0.4972  magn=  0.0147

     total cpu time spent up to now is       12.5 secs

     End of self-consistent calculation

 ------ SPIN UP ------------


          k = 0.0000 0.0000 0.0000 ( 35965 PWs)   bands (ev):

   -20.8028 -15.5918 -15.5783 -15.5783 -14.8424 -14.1829 -14.1829  -9.8364
    -7.8473  -7.2801  -7.2801  -6.8919  -4.4851  -4.4851  -3.3574  -3.3574
    -2.3948   0.5288   0.5288   1.3631   2.2094

 ------ SPIN DOWN ----------


          k = 0.0000 0.0000 0.0000 ( 35965 PWs)   bands (ev):

   -20.6523 -15.5110 -15.5110 -15.3706 -14.4917 -14.1069 -14.1069  -9.6142
    -7.8351  -7.1635  -7.1635  -6.5169  -4.3487  -4.3487  -3.2648  -3.2648
    -0.8623   0.6834   0.6834   1.6129   2.3613

     the Fermi energy is    -1.5361 ev

!    total energy              =     -96.97244326 Ry
     estimated scf accuracy    <          4.0E-11 Ry
     smearing contrib. (-TS)   =      -0.00000000 Ry
     internal energy E=F+TS    =     -96.97244326 Ry

     The total energy is F=E-TS. E is the sum of the following terms:
     one-electron contribution =    -648.54069289 Ry
     hartree contribution      =     331.46532421 Ry
     xc contribution           =     -35.24911559 Ry
     ewald contribution        =     255.40761919 Ry
     DFT-D3 Dispersion         =      -0.05557818 Ry

     total magnetization       =     1.00 Bohr mag/cell
     absolute magnetization    =     1.36 Bohr mag/cell

     convergence has been achieved in  14 iterations

     Forces acting on atoms (cartesian axes, Ry/au):

     atom    1 type  1   force =     0.00012747   -0.00007360   -0.00020074
     atom    2 type  1   force =     0.00000000    0.00014719   -0.00020074
     atom    3 type  1   force =    -0.00012747   -0.00007360   -0.00020074
     atom    4 type  1   force =     0.00000000    0.00000000   -0.00011566
     atom    5 type  1   force =     0.00002959    0.00001708    0.00024421
     atom    6 type  1   force =     0.00000000    0.00000000    0.00025644
     atom    7 type  1   force =    -0.00002959    0.00001708    0.00024421
     atom    8 type  1   force =     0.00000000   -0.00003417    0.00024421
     atom    9 type  2   force =     0.00000000    0.00000000   -0.00027119

     Total force =     0.000722     Total SCF correction =     0.000009


     Computing stress (Cartesian axis) and pressure

          total   stress  (Ry/bohr**3)                   (kbar)     P=       27.19
   0.00027749   0.00000000   0.00000000           40.82        0.00        0.00
   0.00000000   0.00027749   0.00000000            0.00       40.82        0.00
   0.00000000  -0.00000000  -0.00000057            0.00       -0.00       -0.08


     Writing all to output data dir ./tmp/hc8_100.save/ :
     XML data file, charge density, pseudopotentials, collected wavefunctions

     init_run     :      0.72s CPU      0.71s WALL (       1 calls)
     electrons    :     17.21s CPU     11.77s WALL (       1 calls)
     forces       :      0.40s CPU      0.28s WALL (       1 calls)
     force_dftd3  :      0.07s CPU      0.07s WALL (       1 calls)
     stress       :      1.12s CPU      0.84s WALL (       1 calls)
     stres_dftd3  :      0.06s CPU      0.07s WALL (       1 calls)

     Called by init_run:
     wfcinit      :      0.25s CPU      0.16s WALL (       1 calls)
     potinit      :      0.12s CPU      0.15s WALL (       1 calls)
     hinit0       :      0.30s CPU      0.33s WALL (       1 calls)

     Called by electrons:
     c_bands      :     12.95s CPU      8.41s WALL (      14 calls)
     sum_band     :      1.71s CPU      1.08s WALL (      14 calls)
     v_of_rho     :      1.76s CPU      1.70s WALL (      15 calls)
     mix_rho      :      0.69s CPU      0.55s WALL (      14 calls)
     energy_dftd3 :      0.09s CPU      0.05s WALL (       1 calls)

     Called by c_bands:
     init_us_2    :      0.43s CPU      0.28s WALL (      62 calls)
     cegterg      :     12.50s CPU      8.09s WALL (      28 calls)

     Called by *egterg:
     cdiaghg      :      0.14s CPU      0.08s WALL (     171 calls)
     h_psi        :     10.08s CPU      6.55s WALL (     173 calls)
     g_psi        :      0.07s CPU      0.04s WALL (     143 calls)

     Called by h_psi:
     h_psi:calbec :      2.78s CPU      2.02s WALL (     173 calls)
     vloc_psi     :      6.59s CPU      4.12s WALL (     173 calls)
                                        0.00s GPU  (     173 calls)
     add_vuspsi   :      0.61s CPU      0.35s WALL (     173 calls)

     General routines
     calbec       :      3.42s CPU      2.46s WALL (     207 calls)
     fft          :      1.16s CPU      1.15s WALL (     325 calls)
     ffts         :      0.07s CPU      0.04s WALL (      28 calls)
     fftw         :      6.72s CPU      4.22s WALL (    4608 calls)

     Parallel routines

     PWSCF        :     19.51s CPU     13.68s WALL


   This run was terminated on:  19:47:36   8Sep2026            

=------------------------------------------------------------------------------=
   JOB DONE.
=------------------------------------------------------------------------------=
