C  H 
 1.0000000000000000
     4.9326481819000003    0.0000000000000000    0.0000000000000000
    -2.4663246598000002    4.2717983050999999    0.0000000000000000
     0.0000000000000000    0.0000000000000000   15.0000000000000000
 C   H  
   8   1
Cartesian
 -0.0198906859142588  0.0114838808012158  7.3745511293687374
 -1.2331623300000001  2.1129313471184656  7.3745511293687374
  2.4862147769142644  0.0114838949982432  7.3745511293687374
  1.2331617610000001  2.1358991530000000  7.8411477275950761
 -0.0339973672932318  1.4043044101852853  7.4155182359122058
 -1.2331625190000000  3.5598318359999999  7.5495814146608264
  2.5003209312932300  1.4043044198278265  7.4155182359122058
  1.2331614240000000  3.5990883956058983  7.4155182359122058
  1.2331617610000001  2.1358991530000000  8.9390626831806355
