
     Program PWSCF v.7.5 starts on  8Sep2026 at 19:41:39 

     This program is part of the open-source Quantum ESPRESSO suite
     for quantum simulation of materials; please cite
         "P. Giannozzi et al., J. Phys.:Condens. Matter 21 395502 (2009);
         "P. Giannozzi et al., J. Phys.:Condens. Matter 29 465901 (2017);
         "P. Giannozzi et al., J. Chem. Phys. 152 154105 (2020);
          URL http://www.quantum-espresso.org", 
     in publications or presentations arising from this work. More details at
     http://www.quantum-espresso.org/quote

     Parallel version (MPI & OpenMP), running on       8 processor cores
     Number of MPI processes:                 4
     Threads/MPI process:                     2

     MPI processes distributed on     1 nodes
     2926 MiB available memory on the printing compute node when the environment starts

     Reading input from espresso.pwi
Warning: card &CELL ignored
Warning: card &FCP ignored
Warning: card &RISM ignored

     Current dimensions of program PWSCF are:
     Max number of different atomic species (ntypx) = 10
     Max number of k-points (npk) =  40000
     Max angular momentum in pseudopotentials (lmaxx) =  4
     Message from routine setup:
     using ibrav=0 with symmetry is DISCOURAGED, use correct ibrav instead

     R & G space division:  proc/nbgrp/npool/nimage =       4
     Subspace diagonalization in iterative solution of the eigenvalue problem:
     a serial algorithm will be used


     Parallelization info
     --------------------
     sticks:   dense  smooth     PW     G-vecs:    dense   smooth      PW
     Min         148     148     44                18002    18002    2885
     Max         149     149     49                18019    18019    2886
     Sum         595     595    187                72043    72043   11541

     Using Slab Decomposition



     bravais-lattice index     =            0
     lattice parameter (alat)  =       4.6607  a.u.
     unit-cell volume          =     533.2340 (a.u.)^3
     number of atoms/cell      =            2
     number of atomic types    =            1
     number of electrons       =         8.00
     number of Kohn-Sham states=           12
     kinetic-energy cutoff     =     100.0000  Ry
     charge density cutoff     =     400.0000  Ry
     scf convergence threshold =      1.0E-10
     mixing beta               =       0.7000
     number of iterations used =            8  plain     mixing
     Exchange-correlation= PBE
                           (   1   4   3   4   0   0   0)

     celldm(1)=   4.660672  celldm(2)=   0.000000  celldm(3)=   0.000000
     celldm(4)=   0.000000  celldm(5)=   0.000000  celldm(6)=   0.000000

     crystal axes: (cart. coord. in units of alat)
               a(1) = (   1.000000   0.000000   0.000000 )  
               a(2) = (  -0.500000   0.866025   0.000000 )  
               a(3) = (   0.000000   0.000000   6.081932 )  

     reciprocal axes: (cart. coord. in units 2 pi/alat)
               b(1) = (  1.000000  0.577350 -0.000000 )  
               b(2) = (  0.000000  1.154701  0.000000 )  
               b(3) = (  0.000000 -0.000000  0.164421 )  


     PseudoPot. # 1 for C  read from file:
     /home/danil/home/Molecular-and-Materials-Modeling-2026-Challenges/pseudopotentials/C.upf
     MD5 check sum: 34a24e64c0a39f27c6c36b90a16ac686
     Pseudo is Norm-conserving + core correction, Zval =  4.0
     Generated using ONCVPSP code by D. R. Hamann
     Using radial grid of 1248 points,  4 beta functions with: 
                l(1) =   0
                l(2) =   0
                l(3) =   1
                l(4) =   1

     atomic species   valence    mass     pseudopotential
     C                 4.00    12.01100     C ( 1.00)

     24 Sym. Ops., with inversion, found (12 have fractional translation)



   Cartesian axes

     site n.     atom                  positions (alat units)
         1        C      tau(   1) = (   0.0000000   0.0000000   3.0409662  )
         2        C      tau(   2) = (   0.0000000   0.5773503   3.0409662  )

     number of k points=   169  Gaussian smearing, width (Ry)=  0.0100

     Number of k-points >= 100: set verbosity='high' to print them.

     Dense  grid:    72043 G-vectors     FFT dimensions: (  30,  30, 192)

     Estimated max dynamical RAM per process >      83.21 MB

     Estimated total dynamical RAM >     332.83 MB
 ----2D----2D----2D----2D----2D----2D----2D----2D----2D----2D----2D----2D
  The code is running with the 2D cutoff
  Please refer to:
  Sohier, T., Calandra, M., & Mauri, F. (2017), 
  Density functional perturbation theory for gated two-dimensional heterostructures:
  Theoretical developments and application to flexural phonons in graphene.
  Physical Review B, 96(7), 75448. https://doi.org/10.1103/PhysRevB.96.075448
 ----2D----2D----2D----2D----2D----2D----2D----2D----2D----2D----2D----2D

     Initial potential from superposition of free atoms

     starting charge       7.9999, renormalised to       8.0000

     negative rho (up, down):  1.322E-06 0.000E+00
     Starting wfcs are    8 randomized atomic wfcs +    4 random wfcs

     total cpu time spent up to now is        1.8 secs

     per-process dynamical memory:    94.5 Mb

     Self-consistent Calculation

     iteration #  1     ecut=   100.00 Ry     beta= 0.70
     Davidson diagonalization with overlap
     ethr =  1.00E-02,  avg # of iterations =  8.1

     total cpu time spent up to now is        9.6 secs

     total energy              =     -24.06512636 Ry
     estimated scf accuracy    <       0.19861158 Ry

     iteration #  2     ecut=   100.00 Ry     beta= 0.70
     Davidson diagonalization with overlap
     ethr =  2.48E-03,  avg # of iterations =  4.3

     total cpu time spent up to now is       14.0 secs

     total energy              =     -24.09552591 Ry
     estimated scf accuracy    <       0.00226981 Ry

     iteration #  3     ecut=   100.00 Ry     beta= 0.70
     Davidson diagonalization with overlap
     ethr =  2.84E-05,  avg # of iterations =  7.7

     total cpu time spent up to now is       20.2 secs

     total energy              =     -24.09583854 Ry
     estimated scf accuracy    <       0.00016888 Ry

     iteration #  4     ecut=   100.00 Ry     beta= 0.70
     Davidson diagonalization with overlap
     ethr =  2.11E-06,  avg # of iterations =  4.1

     total cpu time spent up to now is       24.5 secs

     total energy              =     -24.09584599 Ry
     estimated scf accuracy    <       0.00000073 Ry

     iteration #  5     ecut=   100.00 Ry     beta= 0.70
     Davidson diagonalization with overlap
     ethr =  9.16E-09,  avg # of iterations =  3.0

     total cpu time spent up to now is       28.7 secs

     total energy              =     -24.09584661 Ry
     estimated scf accuracy    <       0.00000002 Ry

     iteration #  6     ecut=   100.00 Ry     beta= 0.70
     Davidson diagonalization with overlap
     ethr =  2.89E-10,  avg # of iterations =  2.6

     total cpu time spent up to now is       32.9 secs

     total energy              =     -24.09584662 Ry
     estimated scf accuracy    <          5.2E-10 Ry

     iteration #  7     ecut=   100.00 Ry     beta= 0.70
     Davidson diagonalization with overlap
     ethr =  6.46E-12,  avg # of iterations =  3.0

     total cpu time spent up to now is       37.0 secs

     End of self-consistent calculation

     Number of k-points >= 100: set verbosity='high' to print the bands.

     the Fermi energy is    -4.2405 ev

!    total energy              =     -24.09584662 Ry
     estimated scf accuracy    <          1.2E-11 Ry
     smearing contrib. (-TS)   =      -0.00001282 Ry
     internal energy E=F+TS    =     -24.09583380 Ry

     The total energy is F=E-TS. E is the sum of the following terms:
     one-electron contribution =    -256.46936544 Ry
     hartree contribution      =     128.98726606 Ry
     xc contribution           =      -8.57813857 Ry
     ewald contribution        =     111.96440415 Ry

     convergence has been achieved in   7 iterations

     Forces acting on atoms (cartesian axes, Ry/au):

     atom    1 type  1   force =     0.00000000    0.00000000    0.00000000
     atom    2 type  1   force =     0.00000000   -0.00000000    0.00000000

     Total force =     0.000000     Total SCF correction =     0.000000


     Computing stress (Cartesian axis) and pressure

          total   stress  (Ry/bohr**3)                   (kbar)     P=        0.06
   0.00000066   0.00000000  -0.00000000            0.10        0.00       -0.00
   0.00000000   0.00000066   0.00000000            0.00        0.10        0.00
  -0.00000000   0.00000000  -0.00000003           -0.00        0.00       -0.00


     Writing all to output data dir ./tmp/k42.save/ :
     XML data file, charge density, pseudopotentials, collected wavefunctions

     init_run     :      3.01s CPU      1.79s WALL (       1 calls)
     electrons    :     61.69s CPU     35.19s WALL (       1 calls)
     forces       :      0.33s CPU      0.17s WALL (       1 calls)
     stress       :      1.39s CPU      0.72s WALL (       1 calls)

     Called by init_run:
     wfcinit      :      2.65s CPU      1.42s WALL (       1 calls)
     potinit      :      0.02s CPU      0.02s WALL (       1 calls)
     hinit0       :      0.20s CPU      0.21s WALL (       1 calls)

     Called by electrons:
     c_bands      :     55.93s CPU     29.92s WALL (       7 calls)
     sum_band     :      5.67s CPU      5.19s WALL (       7 calls)
     v_of_rho     :      0.08s CPU      0.08s WALL (       8 calls)
     mix_rho      :      0.01s CPU      0.02s WALL (       7 calls)

     Called by c_bands:
     init_us_2    :      0.87s CPU      0.56s WALL (    2873 calls)
     cegterg      :     54.56s CPU     29.22s WALL (    1183 calls)

     Called by *egterg:
     cdiaghg      :      1.34s CPU      0.68s WALL (    6725 calls)
     h_psi        :     50.96s CPU     27.34s WALL (    6894 calls)
     g_psi        :      0.38s CPU      0.20s WALL (    5542 calls)

     Called by h_psi:
     h_psi:calbec :      0.98s CPU      0.53s WALL (    6894 calls)
     vloc_psi     :     49.16s CPU     26.36s WALL (    6894 calls)
                                        0.00s GPU  (    6894 calls)
     add_vuspsi   :      0.57s CPU      0.31s WALL (    6894 calls)

     General routines
     calbec       :      1.58s CPU      0.83s WALL (    9767 calls)
     fft          :      0.26s CPU      0.25s WALL (     104 calls)
     ffts         :      0.00s CPU      0.00s WALL (       7 calls)
     fftw         :     50.33s CPU     28.42s WALL (  103410 calls)

     Parallel routines

     PWSCF        :   1m 6.62s CPU     38.11s WALL


   This run was terminated on:  19:42:17   8Sep2026            

=------------------------------------------------------------------------------=
   JOB DONE.
=------------------------------------------------------------------------------=
