
     Program PWSCF v.7.5 starts on  8Sep2026 at 19:39:51 

     This program is part of the open-source Quantum ESPRESSO suite
     for quantum simulation of materials; please cite
         "P. Giannozzi et al., J. Phys.:Condens. Matter 21 395502 (2009);
         "P. Giannozzi et al., J. Phys.:Condens. Matter 29 465901 (2017);
         "P. Giannozzi et al., J. Chem. Phys. 152 154105 (2020);
          URL http://www.quantum-espresso.org", 
     in publications or presentations arising from this work. More details at
     http://www.quantum-espresso.org/quote

     Parallel version (MPI & OpenMP), running on       8 processor cores
     Number of MPI processes:                 4
     Threads/MPI process:                     2

     MPI processes distributed on     1 nodes
     3022 MiB available memory on the printing compute node when the environment starts

     Reading input from espresso.pwi
Warning: card &CELL ignored
Warning: card &FCP ignored
Warning: card &RISM ignored

     Current dimensions of program PWSCF are:
     Max number of different atomic species (ntypx) = 10
     Max number of k-points (npk) =  40000
     Max angular momentum in pseudopotentials (lmaxx) =  4
     Message from routine setup:
     using ibrav=0 with symmetry is DISCOURAGED, use correct ibrav instead

     R & G space division:  proc/nbgrp/npool/nimage =       4
     Subspace diagonalization in iterative solution of the eigenvalue problem:
     a serial algorithm will be used


     Parallelization info
     --------------------
     sticks:   dense  smooth     PW     G-vecs:    dense   smooth      PW
     Min         139     139     46                 2198     2198     397
     Max         140     140     47                 2201     2201     398
     Sum         559     559    187                 8801     8801    1591

     Using Slab Decomposition



     bravais-lattice index     =            0
     lattice parameter (alat)  =       5.4104  a.u.
     unit-cell volume          =     111.9902 (a.u.)^3
     number of atoms/cell      =            1
     number of atomic types    =            1
     number of electrons       =         3.00
     number of Kohn-Sham states=            6
     kinetic-energy cutoff     =      70.0000  Ry
     charge density cutoff     =     280.0000  Ry
     scf convergence threshold =      1.0E-10
     mixing beta               =       0.7000
     number of iterations used =            8  plain     mixing
     Exchange-correlation= PBE
                           (   1   4   3   4   0   0   0)

     celldm(1)=   5.410428  celldm(2)=   0.000000  celldm(3)=   0.000000
     celldm(4)=   0.000000  celldm(5)=   0.000000  celldm(6)=   0.000000

     crystal axes: (cart. coord. in units of alat)
               a(1) = (   0.000000   0.707107   0.707107 )  
               a(2) = (   0.707107   0.000000   0.707107 )  
               a(3) = (   0.707107   0.707107   0.000000 )  

     reciprocal axes: (cart. coord. in units 2 pi/alat)
               b(1) = ( -0.707107  0.707107  0.707107 )  
               b(2) = (  0.707107 -0.707107  0.707107 )  
               b(3) = (  0.707107  0.707107 -0.707107 )  


     PseudoPot. # 1 for Al read from file:
     /home/danil/home/Molecular-and-Materials-Modeling-2026-Challenges/pseudopotentials/Al.upf
     MD5 check sum: 0b5c6c21fc59a2e497c09c32fa85f380
     Pseudo is Norm-conserving + core correction, Zval =  3.0
     Generated using ONCVPSP code by D. R. Hamann
     Using radial grid of 1876 points,  6 beta functions with: 
                l(1) =   0
                l(2) =   0
                l(3) =   1
                l(4) =   1
                l(5) =   2
                l(6) =   2

     atomic species   valence    mass     pseudopotential
     Al                3.00    26.98154     Al( 1.00)

     48 Sym. Ops., with inversion, found



   Cartesian axes

     site n.     atom                  positions (alat units)
         1        Al     tau(   1) = (   0.0000000   0.0000000   0.0000000  )

     number of k points=    29  Marzari-Vanderbilt smearing, width (Ry)=  0.0200
                       cart. coord. in units 2pi/alat
        k(    1) = (   0.0000000   0.0000000   0.0000000), wk =   0.0039062
        k(    2) = (   0.0883883   0.0883883  -0.0883883), wk =   0.0312500
        k(    3) = (   0.1767767   0.1767767  -0.1767767), wk =   0.0312500
        k(    4) = (   0.2651650   0.2651650  -0.2651650), wk =   0.0312500
        k(    5) = (  -0.3535534  -0.3535534   0.3535534), wk =   0.0156250
        k(    6) = (   0.1767767   0.0000000   0.0000000), wk =   0.0234375
        k(    7) = (   0.2651650   0.0883883  -0.0883883), wk =   0.0937500
        k(    8) = (   0.3535534   0.1767767  -0.1767767), wk =   0.0937500
        k(    9) = (  -0.2651650  -0.4419417   0.4419417), wk =   0.0937500
        k(   10) = (  -0.1767767  -0.3535534   0.3535534), wk =   0.0937500
        k(   11) = (  -0.0883883  -0.2651650   0.2651650), wk =   0.0937500
        k(   12) = (   0.0000000  -0.1767767   0.1767767), wk =   0.0468750
        k(   13) = (   0.3535534   0.0000000   0.0000000), wk =   0.0234375
        k(   14) = (   0.4419417   0.0883883  -0.0883883), wk =   0.0937500
        k(   15) = (  -0.1767767  -0.5303301   0.5303301), wk =   0.0937500
        k(   16) = (  -0.0883883  -0.4419417   0.4419417), wk =   0.0937500
        k(   17) = (   0.0000000  -0.3535534   0.3535534), wk =   0.0468750
        k(   18) = (   0.5303301   0.0000000   0.0000000), wk =   0.0234375
        k(   19) = (  -0.0883883  -0.6187184   0.6187184), wk =   0.0937500
        k(   20) = (   0.0000000  -0.5303301   0.5303301), wk =   0.0468750
        k(   21) = (  -0.7071068   0.0000000   0.0000000), wk =   0.0117188
        k(   22) = (   0.3535534   0.1767767   0.0000000), wk =   0.0937500
        k(   23) = (  -0.2651650  -0.4419417   0.6187184), wk =   0.1875000
        k(   24) = (  -0.1767767  -0.3535534   0.5303301), wk =   0.0937500
        k(   25) = (  -0.1767767  -0.5303301   0.7071068), wk =   0.0937500
        k(   26) = (  -0.0883883  -0.4419417   0.6187184), wk =   0.1875000
        k(   27) = (   0.0000000  -0.3535534   0.5303301), wk =   0.0937500
        k(   28) = (  -0.7071068   0.1767767   0.0000000), wk =   0.0468750
        k(   29) = (  -0.7071068   0.3535534   0.0000000), wk =   0.0234375

     Dense  grid:     8801 G-vectors     FFT dimensions: (  30,  30,  30)

     Estimated max dynamical RAM per process >       3.70 MB

     Estimated total dynamical RAM >      14.79 MB

     Initial potential from superposition of free atoms

     starting charge       2.9976, renormalised to       3.0000
     Starting wfcs are    4 randomized atomic wfcs +    2 random wfcs

     total cpu time spent up to now is        0.2 secs

     per-process dynamical memory:    13.1 Mb

     Self-consistent Calculation

     iteration #  1     ecut=    70.00 Ry     beta= 0.70
     Davidson diagonalization with overlap
     ethr =  1.00E-02,  avg # of iterations =  5.9

     Threshold (ethr) on eigenvalues was too large:
     Diagonalizing with lowered threshold

     Davidson diagonalization with overlap
     ethr =  1.96E-04,  avg # of iterations =  4.4

     total cpu time spent up to now is        0.4 secs

     total energy              =      -4.63491333 Ry
     estimated scf accuracy    <       0.00581527 Ry

     iteration #  2     ecut=    70.00 Ry     beta= 0.70
     Davidson diagonalization with overlap
     ethr =  1.94E-04,  avg # of iterations =  1.0

     total cpu time spent up to now is        0.5 secs

     total energy              =      -4.63488757 Ry
     estimated scf accuracy    <       0.00041252 Ry

     iteration #  3     ecut=    70.00 Ry     beta= 0.70
     Davidson diagonalization with overlap
     ethr =  1.38E-05,  avg # of iterations =  3.0

     total cpu time spent up to now is        0.5 secs

     total energy              =      -4.63490538 Ry
     estimated scf accuracy    <       0.00000074 Ry

     iteration #  4     ecut=    70.00 Ry     beta= 0.70
     Davidson diagonalization with overlap
     ethr =  2.46E-08,  avg # of iterations =  3.7

     total cpu time spent up to now is        0.6 secs

     total energy              =      -4.63490680 Ry
     estimated scf accuracy    <          5.1E-09 Ry

     iteration #  5     ecut=    70.00 Ry     beta= 0.70
     Davidson diagonalization with overlap
     ethr =  1.71E-10,  avg # of iterations =  2.4

     total cpu time spent up to now is        0.7 secs

     End of self-consistent calculation

          k = 0.0000 0.0000 0.0000 (  1067 PWs)   bands (ev):

    -3.2270  20.4514  20.4514  21.8818  21.8818  21.8818

          k = 0.0884 0.0884-0.0884 (  1113 PWs)   bands (ev):

    -2.8044  16.1559  19.4955  19.4955  22.5179  23.4260

          k = 0.1768 0.1768-0.1768 (  1101 PWs)   bands (ev):

    -1.5439  11.2981  18.7289  18.7290  22.1668  22.5548

          k = 0.2652 0.2652-0.2652 (  1107 PWs)   bands (ev):

     0.5331   7.0062  18.6369  18.6369  20.5771  20.5771

          k =-0.3536-0.3536 0.3536 (  1104 PWs)   bands (ev):

     3.2943   3.5015  19.2075  19.2075  19.2985  19.2985

          k = 0.1768 0.0000 0.0000 (  1114 PWs)   bands (ev):

    -2.6638  17.7399  17.7399  18.0027  20.7383  22.4505

          k = 0.2652 0.0884-0.0884 (  1110 PWs)   bands (ev):

    -1.6835  13.1542  16.6778  18.1967  19.4234  21.9439

          k = 0.3536 0.1768-0.1768 (  1105 PWs)   bands (ev):

     0.1198   8.7014  16.3305  17.0562  18.0329  24.0347

          k =-0.2652-0.4419 0.4419 (  1109 PWs)   bands (ev):

     2.7133   4.8802  15.4338  16.7017  18.4701  22.5272

          k =-0.1768-0.3536 0.3536 (  1111 PWs)   bands (ev):

     1.7648   6.0719  14.5549  17.7922  19.6501  21.6878

          k =-0.0884-0.2652 0.2652 (  1104 PWs)   bands (ev):

    -0.5710  10.0992  14.4556  19.5821  21.5303  21.5373

          k = 0.0000-0.1768 0.1768 (  1107 PWs)   bands (ev):

    -2.1028  14.2989  15.5308  21.5457  21.8293  23.1702

          k = 0.3536 0.0000 0.0000 (  1094 PWs)   bands (ev):

    -0.9874  15.3380  15.3553  15.3553  16.0988  18.8148

          k = 0.4419 0.0884-0.0884 (  1101 PWs)   bands (ev):

     0.5315  11.0838  13.4340  14.7587  16.2267  20.2283

          k =-0.1768-0.5303 0.5303 (  1108 PWs)   bands (ev):

     2.8430   7.1175  11.5128  14.8849  16.5681  23.8870

          k =-0.0884-0.4419 0.4419 (  1119 PWs)   bands (ev):

     3.7892   5.8997  10.3924  15.7342  17.5561  25.4380

          k = 0.0000-0.3536 0.3536 (  1117 PWs)   bands (ev):

     1.2184   9.1083  10.6074  17.3065  19.2672  24.7885

          k = 0.5303 0.0000 0.0000 (  1094 PWs)   bands (ev):

     1.7578  10.4480  13.6830  13.9166  13.9166  17.3893

          k =-0.0884-0.6187 0.6187 (  1112 PWs)   bands (ev):

     3.7545   8.2416  10.0743  13.7987  15.1644  19.2935

          k = 0.0000-0.5303 0.5303 (  1121 PWs)   bands (ev):

     5.9924   6.5178   7.4663  14.4036  16.0440  23.4738

          k =-0.7071 0.0000 0.0000 (  1106 PWs)   bands (ev):

     4.9568   6.2727  13.1269  13.4374  13.4374  16.8804

          k = 0.3536 0.1768 0.0000 (  1096 PWs)   bands (ev):

    -0.4328  11.7097  13.1041  16.6143  19.9687  21.7177

          k =-0.2652-0.4419 0.6187 (  1108 PWs)   bands (ev):

     1.6271   8.0055  12.4311  14.4842  20.5873  22.6658

          k =-0.1768-0.3536 0.5303 (  1108 PWs)   bands (ev):

     4.3384   4.5901  12.8293  13.2905  21.1058  21.5445

          k =-0.1768-0.5303 0.7071 (  1105 PWs)   bands (ev):

     2.3015  10.1498  10.8602  11.7416  18.4800  20.4718

          k =-0.0884-0.4419 0.6187 (  1106 PWs)   bands (ev):

     4.8185   6.9447   9.3218  11.4757  19.6576  23.7714

          k = 0.0000-0.3536 0.5303 (  1102 PWs)   bands (ev):

     3.9197   7.5491   9.0133  12.5785  20.8675  24.1035

          k =-0.7071 0.1768 0.0000 (  1108 PWs)   bands (ev):

     5.4744   6.8129   9.6293  11.1293  17.9724  20.0185

          k =-0.7071 0.3536 0.0000 (  1124 PWs)   bands (ev):

     7.0299   7.0299   8.0473   8.9518  23.6312  23.6317

     the Fermi energy is     7.8310 ev

!    total energy              =      -4.63490680 Ry
     estimated scf accuracy    <          1.8E-11 Ry
     smearing contrib. (-TS)   =       0.00006094 Ry
     internal energy E=F+TS    =      -4.63496775 Ry

     The total energy is F=E-TS. E is the sum of the following terms:
     one-electron contribution =       2.91418860 Ry
     hartree contribution      =       0.00760702 Ry
     xc contribution           =      -2.16386618 Ry
     ewald contribution        =      -5.39289719 Ry

     convergence has been achieved in   5 iterations

     Forces acting on atoms (cartesian axes, Ry/au):

     atom    1 type  1   force =     0.00000000    0.00000000    0.00000000

     Total force =     0.000000     Total SCF correction =     0.000000


     Computing stress (Cartesian axis) and pressure

          total   stress  (Ry/bohr**3)                   (kbar)     P=       -6.06
  -0.00004117  -0.00000000  -0.00000000           -6.06       -0.00       -0.00
  -0.00000000  -0.00004117  -0.00000000           -0.00       -6.06       -0.00
  -0.00000000  -0.00000000  -0.00004117           -0.00       -0.00       -6.06


     Writing all to output data dir ./tmp/ecut_70.save/ :
     XML data file, charge density, pseudopotentials, collected wavefunctions

     init_run     :      0.13s CPU      0.15s WALL (       1 calls)
     electrons    :      0.90s CPU      0.54s WALL (       1 calls)
     forces       :      0.01s CPU      0.01s WALL (       1 calls)
     stress       :      0.05s CPU      0.03s WALL (       1 calls)

     Called by init_run:
     wfcinit      :      0.03s CPU      0.04s WALL (       1 calls)
     potinit      :      0.01s CPU      0.01s WALL (       1 calls)
     hinit0       :      0.10s CPU      0.10s WALL (       1 calls)

     Called by electrons:
     c_bands      :      0.75s CPU      0.45s WALL (       6 calls)
     sum_band     :      0.13s CPU      0.08s WALL (       6 calls)
     v_of_rho     :      0.02s CPU      0.01s WALL (       6 calls)
     mix_rho      :      0.00s CPU      0.00s WALL (       6 calls)

     Called by c_bands:
     init_us_2    :      0.03s CPU      0.02s WALL (     435 calls)
     cegterg      :      0.71s CPU      0.43s WALL (     174 calls)

     Called by *egterg:
     cdiaghg      :      0.03s CPU      0.02s WALL (     739 calls)
     h_psi        :      0.65s CPU      0.41s WALL (     797 calls)
     g_psi        :      0.00s CPU      0.00s WALL (     594 calls)

     Called by h_psi:
     h_psi:calbec :      0.02s CPU      0.01s WALL (     797 calls)
     vloc_psi     :      0.62s CPU      0.39s WALL (     797 calls)
                                        0.00s GPU  (     797 calls)
     add_vuspsi   :      0.01s CPU      0.00s WALL (     797 calls)

     General routines
     calbec       :      0.03s CPU      0.02s WALL (    1290 calls)
     fft          :      0.09s CPU      0.08s WALL (      85 calls)
     ffts         :      0.00s CPU      0.00s WALL (       6 calls)
     fftw         :      0.66s CPU      0.41s WALL (    7354 calls)

     Parallel routines

     PWSCF        :      1.15s CPU      0.76s WALL


   This run was terminated on:  19:39:51   8Sep2026            

=------------------------------------------------------------------------------=
   JOB DONE.
=------------------------------------------------------------------------------=
