
     Program PWSCF v.7.5 starts on  3Sep2026 at 15:37:28 

     This program is part of the open-source Quantum ESPRESSO suite
     for quantum simulation of materials; please cite
         "P. Giannozzi et al., J. Phys.:Condens. Matter 21 395502 (2009);
         "P. Giannozzi et al., J. Phys.:Condens. Matter 29 465901 (2017);
         "P. Giannozzi et al., J. Chem. Phys. 152 154105 (2020);
          URL http://www.quantum-espresso.org", 
     in publications or presentations arising from this work. More details at
     http://www.quantum-espresso.org/quote

     Parallel version (MPI & OpenMP), running on       4 processor cores
     Number of MPI processes:                 4
     Threads/MPI process:                     1

     MPI processes distributed on     1 nodes
     1872 MiB available memory on the printing compute node when the environment starts

     Reading input from espresso.pwi
Warning: card &IONS ignored
Warning: card &CELL ignored
Warning: card &FCP ignored
Warning: card &RISM ignored

     Current dimensions of program PWSCF are:
     Max number of different atomic species (ntypx) = 10
     Max number of k-points (npk) =  40000
     Max angular momentum in pseudopotentials (lmaxx) =  4

     Atomic positions and unit cell read from directory:
     ./tmp/dg020.save/


     R & G space division:  proc/nbgrp/npool/nimage =       4
     Subspace diagonalization in iterative solution of the eigenvalue problem:
     a serial algorithm will be used


     Parallelization info
     --------------------
     sticks:   dense  smooth     PW     G-vecs:    dense   smooth      PW
     Min         238     238     75                 4892     4892     869
     Max         239     239     76                 4896     4896     872
     Sum         955     955    301                19579    19579    3479

     Using Slab Decomposition



     bravais-lattice index     =            0
     lattice parameter (alat)  =       7.3065  a.u.
     unit-cell volume          =     275.8081 (a.u.)^3
     number of atoms/cell      =            2
     number of atomic types    =            1
     number of electrons       =         8.00
     number of Kohn-Sham states=            8
     kinetic-energy cutoff     =      65.0000  Ry
     charge density cutoff     =     260.0000  Ry
     Exchange-correlation= PBE
                           (   1   4   3   4   0   0   0)

     celldm(1)=   7.306465  celldm(2)=   0.000000  celldm(3)=   0.000000
     celldm(4)=   0.000000  celldm(5)=   0.000000  celldm(6)=   0.000000

     crystal axes: (cart. coord. in units of alat)
               a(1) = (   0.000000   0.707107   0.707107 )  
               a(2) = (   0.707107   0.000000   0.707107 )  
               a(3) = (   0.707107   0.707107   0.000000 )  

     reciprocal axes: (cart. coord. in units 2 pi/alat)
               b(1) = ( -0.707107  0.707107  0.707107 )  
               b(2) = (  0.707107 -0.707107  0.707107 )  
               b(3) = (  0.707107  0.707107 -0.707107 )  


     PseudoPot. # 1 for Si read from file:
     ../../Si.upf
     MD5 check sum: 02fab3f35e82123ef5bf1cb05d5b1a5e
     Pseudo is Norm-conserving + core correction, Zval =  4.0
     Generated using ONCVPSP code by D. R. Hamann
     Using radial grid of 1510 points,  6 beta functions with: 
                l(1) =   0
                l(2) =   0
                l(3) =   1
                l(4) =   1
                l(5) =   2
                l(6) =   2

     atomic species   valence    mass     pseudopotential
     Si                4.00    28.08500     Si( 1.00)

     No symmetry found



   Cartesian axes

     site n.     atom                  positions (alat units)
         1        Si     tau(   1) = (   0.3535534   1.0606602   1.0606602  )
         2        Si     tau(   2) = (   0.0000000   0.0000000   0.0000000  )

     number of k points=  6916  Gaussian smearing, width (Ry)=  0.0200

     Number of k-points >= 100: set verbosity='high' to print them.

     Dense  grid:    19579 G-vectors     FFT dimensions: (  40,  40,  40)

     Estimated max dynamical RAM per process >       3.76 MB

     Estimated total dynamical RAM >      15.04 MB

     The potential is recalculated from file :
     ./tmp/dg020.save/charge-density

     Starting wfcs are    8 randomized atomic wfcs

     Band Structure Calculation
     Davidson diagonalization with overlap
     c_bands:  1 eigenvalues not converged

     ethr =  1.25E-12,  avg # of iterations = 43.6

     total cpu time spent up to now is      264.8 secs

     End of band structure calculation

     Number of k-points >= 100: set verbosity='high' to print the bands.

     the Fermi energy is     6.3184 ev
     (compare with:     6.3182 eV, computed in scf)

     Writing all to output data dir ./tmp/dg020.save/ :
     XML data file, pseudopotentials, collected wavefunctions

     init_run     :      0.36s CPU      0.37s WALL (       1 calls)
     electrons    :    244.92s CPU    264.41s WALL (       1 calls)

     Called by init_run:
     wfcinit      :      0.00s CPU      0.00s WALL (       1 calls)
     potinit      :      0.00s CPU      0.00s WALL (       1 calls)
     hinit0       :      0.15s CPU      0.15s WALL (       1 calls)

     Called by electrons:
     c_bands      :    244.91s CPU    264.39s WALL (       1 calls)
     v_of_rho     :      0.00s CPU      0.00s WALL (       1 calls)

     Called by c_bands:
     init_us_2    :      0.51s CPU      0.56s WALL (    6916 calls)
     cegterg      :    234.30s CPU    252.80s WALL (   17996 calls)

     Called by *egterg:
     cdiaghg      :     10.15s CPU     10.96s WALL (  308266 calls)
     h_psi        :    208.08s CPU    224.62s WALL (  326262 calls)
     g_psi        :      2.59s CPU      2.80s WALL (  301350 calls)

     Called by h_psi:
     h_psi:calbec :      9.48s CPU     10.30s WALL (  326262 calls)
     vloc_psi     :    191.35s CPU    206.48s WALL (  326262 calls)
                                        0.00s GPU  (  326262 calls)
     add_vuspsi   :      6.35s CPU      6.89s WALL (  326262 calls)

     General routines
     calbec       :      9.33s CPU     10.15s WALL (  326262 calls)
     fft          :      0.13s CPU      0.13s WALL (      11 calls)
     fftw         :    174.42s CPU    188.21s WALL ( 3385566 calls)
     davcio       :      0.24s CPU      0.29s WALL (   13832 calls)

     Parallel routines

     PWSCF        :   4m 7.18s CPU   4m27.84s WALL


   This run was terminated on:  15:41:56   3Sep2026            

=------------------------------------------------------------------------------=
   JOB DONE.
=------------------------------------------------------------------------------=
