
     Program PWSCF v.7.5 starts on  8Sep2026 at 19:40:16 

     This program is part of the open-source Quantum ESPRESSO suite
     for quantum simulation of materials; please cite
         "P. Giannozzi et al., J. Phys.:Condens. Matter 21 395502 (2009);
         "P. Giannozzi et al., J. Phys.:Condens. Matter 29 465901 (2017);
         "P. Giannozzi et al., J. Chem. Phys. 152 154105 (2020);
          URL http://www.quantum-espresso.org", 
     in publications or presentations arising from this work. More details at
     http://www.quantum-espresso.org/quote

     Parallel version (MPI & OpenMP), running on       8 processor cores
     Number of MPI processes:                 4
     Threads/MPI process:                     2

     MPI processes distributed on     1 nodes
     3191 MiB available memory on the printing compute node when the environment starts

     Reading input from espresso.pwi
Warning: card &CELL ignored
Warning: card &FCP ignored
Warning: card &RISM ignored

     Current dimensions of program PWSCF are:
     Max number of different atomic species (ntypx) = 10
     Max number of k-points (npk) =  40000
     Max angular momentum in pseudopotentials (lmaxx) =  4
     Message from routine setup:
     using ibrav=0 with symmetry is DISCOURAGED, use correct ibrav instead

     R & G space division:  proc/nbgrp/npool/nimage =       4
     Subspace diagonalization in iterative solution of the eigenvalue problem:
     a serial algorithm will be used


     Parallelization info
     --------------------
     sticks:   dense  smooth     PW     G-vecs:    dense   smooth      PW
     Min         148     148     44                18002    18002    2885
     Max         149     149     49                18019    18019    2886
     Sum         595     595    187                72043    72043   11541

     Using Slab Decomposition



     bravais-lattice index     =            0
     lattice parameter (alat)  =       4.6607  a.u.
     unit-cell volume          =     533.2340 (a.u.)^3
     number of atoms/cell      =            2
     number of atomic types    =            1
     number of electrons       =         8.00
     number of Kohn-Sham states=           12
     kinetic-energy cutoff     =     100.0000  Ry
     charge density cutoff     =     400.0000  Ry
     scf convergence threshold =      1.0E-10
     mixing beta               =       0.7000
     number of iterations used =            8  plain     mixing
     Exchange-correlation= PBE
                           (   1   4   3   4   0   0   0)

     celldm(1)=   4.660672  celldm(2)=   0.000000  celldm(3)=   0.000000
     celldm(4)=   0.000000  celldm(5)=   0.000000  celldm(6)=   0.000000

     crystal axes: (cart. coord. in units of alat)
               a(1) = (   1.000000   0.000000   0.000000 )  
               a(2) = (  -0.500000   0.866025   0.000000 )  
               a(3) = (   0.000000   0.000000   6.081932 )  

     reciprocal axes: (cart. coord. in units 2 pi/alat)
               b(1) = (  1.000000  0.577350 -0.000000 )  
               b(2) = (  0.000000  1.154701  0.000000 )  
               b(3) = (  0.000000 -0.000000  0.164421 )  


     PseudoPot. # 1 for C  read from file:
     /home/danil/home/Molecular-and-Materials-Modeling-2026-Challenges/pseudopotentials/C.upf
     MD5 check sum: 34a24e64c0a39f27c6c36b90a16ac686
     Pseudo is Norm-conserving + core correction, Zval =  4.0
     Generated using ONCVPSP code by D. R. Hamann
     Using radial grid of 1248 points,  4 beta functions with: 
                l(1) =   0
                l(2) =   0
                l(3) =   1
                l(4) =   1

     atomic species   valence    mass     pseudopotential
     C                 4.00    12.01100     C ( 1.00)

     24 Sym. Ops., with inversion, found (12 have fractional translation)



   Cartesian axes

     site n.     atom                  positions (alat units)
         1        C      tau(   1) = (   0.0000000   0.0000000   3.0409662  )
         2        C      tau(   2) = (   0.0000000   0.5773503   3.0409662  )

     number of k points=    19  Gaussian smearing, width (Ry)=  0.0100
                       cart. coord. in units 2pi/alat
        k(    1) = (   0.0000000   0.0000000   0.0000000), wk =   0.0138889
        k(    2) = (   0.0000000   0.0962250   0.0000000), wk =   0.0833333
        k(    3) = (   0.0000000   0.1924501   0.0000000), wk =   0.0833333
        k(    4) = (   0.0000000   0.2886751   0.0000000), wk =   0.0833333
        k(    5) = (   0.0000000   0.3849002   0.0000000), wk =   0.0833333
        k(    6) = (   0.0000000   0.4811252   0.0000000), wk =   0.0833333
        k(    7) = (   0.0000000  -0.5773503   0.0000000), wk =   0.0416667
        k(    8) = (   0.0833333   0.1443376   0.0000000), wk =   0.0833333
        k(    9) = (   0.0833333   0.2405626   0.0000000), wk =   0.1666667
        k(   10) = (   0.0833333   0.3367877   0.0000000), wk =   0.1666667
        k(   11) = (   0.0833333   0.4330127   0.0000000), wk =   0.1666667
        k(   12) = (   0.0833333   0.5292377   0.0000000), wk =   0.1666667
        k(   13) = (   0.1666667   0.2886751   0.0000000), wk =   0.0833333
        k(   14) = (   0.1666667   0.3849002   0.0000000), wk =   0.1666667
        k(   15) = (   0.1666667   0.4811252   0.0000000), wk =   0.1666667
        k(   16) = (   0.1666667   0.5773503   0.0000000), wk =   0.0833333
        k(   17) = (   0.2500000   0.4330127   0.0000000), wk =   0.0833333
        k(   18) = (   0.2500000   0.5292377   0.0000000), wk =   0.1666667
        k(   19) = (   0.3333333   0.5773503   0.0000000), wk =   0.0277778

     Dense  grid:    72043 G-vectors     FFT dimensions: (  30,  30, 192)

     Estimated max dynamical RAM per process >      21.38 MB

     Estimated total dynamical RAM >      85.52 MB
 ----2D----2D----2D----2D----2D----2D----2D----2D----2D----2D----2D----2D
  The code is running with the 2D cutoff
  Please refer to:
  Sohier, T., Calandra, M., & Mauri, F. (2017), 
  Density functional perturbation theory for gated two-dimensional heterostructures:
  Theoretical developments and application to flexural phonons in graphene.
  Physical Review B, 96(7), 75448. https://doi.org/10.1103/PhysRevB.96.075448
 ----2D----2D----2D----2D----2D----2D----2D----2D----2D----2D----2D----2D

     Initial potential from superposition of free atoms

     starting charge       7.9999, renormalised to       8.0000

     negative rho (up, down):  1.322E-06 0.000E+00
     Starting wfcs are    8 randomized atomic wfcs +    4 random wfcs

     total cpu time spent up to now is        0.6 secs

     per-process dynamical memory:    29.7 Mb

     Self-consistent Calculation

     iteration #  1     ecut=   100.00 Ry     beta= 0.70
     Davidson diagonalization with overlap
     ethr =  1.00E-02,  avg # of iterations =  7.8

     total cpu time spent up to now is        1.5 secs

     total energy              =     -24.06475563 Ry
     estimated scf accuracy    <       0.19860055 Ry

     iteration #  2     ecut=   100.00 Ry     beta= 0.70
     Davidson diagonalization with overlap
     ethr =  2.48E-03,  avg # of iterations =  3.9

     total cpu time spent up to now is        1.9 secs

     total energy              =     -24.09513402 Ry
     estimated scf accuracy    <       0.00226721 Ry

     iteration #  3     ecut=   100.00 Ry     beta= 0.70
     Davidson diagonalization with overlap
     ethr =  2.83E-05,  avg # of iterations =  8.3

     total cpu time spent up to now is        2.6 secs

     total energy              =     -24.09544661 Ry
     estimated scf accuracy    <       0.00016857 Ry

     iteration #  4     ecut=   100.00 Ry     beta= 0.70
     Davidson diagonalization with overlap
     ethr =  2.11E-06,  avg # of iterations =  4.5

     total cpu time spent up to now is        3.1 secs

     total energy              =     -24.09545394 Ry
     estimated scf accuracy    <       0.00000072 Ry

     iteration #  5     ecut=   100.00 Ry     beta= 0.70
     Davidson diagonalization with overlap
     ethr =  9.04E-09,  avg # of iterations =  3.1

     total cpu time spent up to now is        3.6 secs

     total energy              =     -24.09545462 Ry
     estimated scf accuracy    <       0.00000002 Ry

     iteration #  6     ecut=   100.00 Ry     beta= 0.70
     Davidson diagonalization with overlap
     ethr =  2.76E-10,  avg # of iterations =  2.5

     total cpu time spent up to now is        4.0 secs

     total energy              =     -24.09545463 Ry
     estimated scf accuracy    <          3.9E-10 Ry

     iteration #  7     ecut=   100.00 Ry     beta= 0.70
     Davidson diagonalization with overlap
     ethr =  4.83E-12,  avg # of iterations =  2.9

     total cpu time spent up to now is        4.5 secs

     End of self-consistent calculation

          k = 0.0000 0.0000 0.0000 (  9073 PWs)   bands (ev):

   -23.7784 -11.8676  -7.3014  -7.3014  -0.9488  -0.0453   1.7544   2.6640
     4.1436   4.1436   5.2606   7.1534

          k = 0.0000 0.0962 0.0000 (  9045 PWs)   bands (ev):

   -23.6147 -11.6714  -7.9530  -7.6408  -0.7265   0.1790   1.9780   2.8863
     4.2075   4.8392   5.4898   6.5969

          k = 0.0000 0.1925 0.0000 (  9049 PWs)   bands (ev):

   -23.1252 -11.0881  -9.5930  -8.4360  -0.0596   0.8503   2.6480   3.5490
     4.1558   5.1024   6.1619   6.6816

          k = 0.0000 0.2887 0.0000 (  9019 PWs)   bands (ev):

   -22.3156 -11.6938 -10.1372  -9.3195   1.0498   1.9465   3.0223   3.6964
     3.9510   4.6712   7.2677   8.8206

          k = 0.0000 0.3849 0.0000 (  9017 PWs)   bands (ev):

   -21.1980 -13.8989 -10.0562  -8.8691   0.6727   2.5896   3.5406   3.5509
     5.3557   6.2007   8.8057  10.1911

          k = 0.0000 0.4811 0.0000 (  8981 PWs)   bands (ev):

   -19.8033 -15.9998 -10.5314  -7.4477  -1.4567   3.2778   4.5948   5.5287
     7.3578   8.1226   9.6132  10.4827

          k = 0.0000-0.5774 0.0000 (  8964 PWs)   bands (ev):

   -18.5411 -17.5052 -10.6945  -6.6051  -2.5510   3.1985   6.8911   7.0408
     7.7677   8.0183   9.7552   9.8051

          k = 0.0833 0.1443 0.0000 (  9047 PWs)   bands (ev):

   -23.2881 -11.2815  -8.9888  -8.3197  -0.2816   0.6270   2.4257   3.3297
     4.5043   5.5832   5.7134   5.9424

          k = 0.0833 0.2406 0.0000 (  9032 PWs)   bands (ev):

   -22.6386 -10.7010 -10.5132  -9.3204   0.6074   1.5186   3.3195   3.8342
     4.2237   4.6530   6.8245   7.2387

          k = 0.0833 0.3368 0.0000 (  9030 PWs)   bands (ev):

   -21.6748 -12.7758 -10.2100  -9.3972   1.6806   1.9363   2.8781   4.3580
     4.7190   5.5299   8.1451   9.3546

          k = 0.0833 0.4330 0.0000 (  9010 PWs)   bands (ev):

   -20.4155 -14.8997 -10.8474  -8.0182  -0.5133   3.6770   4.1362   4.6304
     6.4688   7.2385   9.8835  10.5536

          k = 0.0833 0.5292 0.0000 (  8972 PWs)   bands (ev):

   -18.9372 -16.8411 -11.1773  -6.7109  -2.2772   3.9355   5.8885   6.7688
     8.3954   8.6875   8.9164   9.5995

          k = 0.1667 0.2887 0.0000 (  9021 PWs)   bands (ev):

   -21.8348 -12.0341 -10.6833  -9.5759   1.7170   2.1340   2.6257   4.4404
     5.2932   5.8496   7.3308   7.9396

          k = 0.1667 0.3849 0.0000 (  8997 PWs)   bands (ev):

   -20.7280 -13.7624 -11.7417  -8.3231   0.1912   3.2613   4.1503   5.9185
     6.1477   6.7457   8.7652   9.4792

          k = 0.1667 0.4811 0.0000 (  8988 PWs)   bands (ev):

   -19.3533 -15.6730 -12.3195  -6.8973  -1.7170   5.2126   5.8489   6.0079
     8.0127   8.2426   9.6239   9.9528

          k = 0.1667 0.5774 0.0000 (  8964 PWs)   bands (ev):

   -18.1205 -17.1067 -12.5050  -6.0064  -2.7823   5.7393   7.3867   7.4494
     7.6452   8.6939   9.9031  10.3116

          k = 0.2500 0.4330 0.0000 (  8997 PWs)   bands (ev):

   -19.5009 -14.7994 -13.2244  -6.9808  -1.4223   5.0043   5.7149   7.7232
     7.8847   8.1187   8.4082   9.7494

          k = 0.2500 0.5292 0.0000 (  8948 PWs)   bands (ev):

   -18.0799 -16.2199 -13.9328  -5.5963  -2.9411   6.6664   7.0900   7.9983
     8.8289   9.0533   9.9510  10.9457

          k = 0.3333 0.5774 0.0000 (  8946 PWs)   bands (ev):

   -16.8639 -16.8639 -14.8266  -4.2403  -4.2403   6.4179   8.6579   8.6579
     9.2628  10.7133  10.7133  11.2961

     the Fermi energy is    -4.2403 ev

!    total energy              =     -24.09545463 Ry
     estimated scf accuracy    <          9.7E-12 Ry
     smearing contrib. (-TS)   =      -0.00015672 Ry
     internal energy E=F+TS    =     -24.09529791 Ry

     The total energy is F=E-TS. E is the sum of the following terms:
     one-electron contribution =    -256.46896150 Ry
     hartree contribution      =     128.98742400 Ry
     xc contribution           =      -8.57816456 Ry
     ewald contribution        =     111.96440415 Ry

     convergence has been achieved in   7 iterations

     Forces acting on atoms (cartesian axes, Ry/au):

     atom    1 type  1   force =     0.00000000   -0.00000000    0.00000000
     atom    2 type  1   force =     0.00000000    0.00000000    0.00000000

     Total force =     0.000000     Total SCF correction =     0.000000


     Computing stress (Cartesian axis) and pressure

          total   stress  (Ry/bohr**3)                   (kbar)     P=        0.19
   0.00000191   0.00000000   0.00000000            0.28        0.00        0.00
   0.00000000   0.00000191   0.00000000            0.00        0.28        0.00
  -0.00000000   0.00000000  -0.00000003           -0.00        0.00       -0.00


     Writing all to output data dir ./tmp/k12.save/ :
     XML data file, charge density, pseudopotentials, collected wavefunctions

     init_run     :      0.63s CPU      0.55s WALL (       1 calls)
     electrons    :      7.27s CPU      3.96s WALL (       1 calls)
     forces       :      0.07s CPU      0.04s WALL (       1 calls)
     stress       :      0.22s CPU      0.12s WALL (       1 calls)

     Called by init_run:
     wfcinit      :      0.30s CPU      0.17s WALL (       1 calls)
     potinit      :      0.02s CPU      0.02s WALL (       1 calls)
     hinit0       :      0.20s CPU      0.24s WALL (       1 calls)

     Called by electrons:
     c_bands      :      6.13s CPU      3.33s WALL (       7 calls)
     sum_band     :      0.99s CPU      0.54s WALL (       7 calls)
     v_of_rho     :      0.12s CPU      0.08s WALL (       8 calls)
     mix_rho      :      0.03s CPU      0.01s WALL (       7 calls)

     Called by c_bands:
     init_us_2    :      0.12s CPU      0.07s WALL (     323 calls)
     cegterg      :      5.97s CPU      3.24s WALL (     133 calls)

     Called by *egterg:
     cdiaghg      :      0.16s CPU      0.08s WALL (     762 calls)
     h_psi        :      5.55s CPU      3.02s WALL (     781 calls)
     g_psi        :      0.05s CPU      0.02s WALL (     629 calls)

     Called by h_psi:
     h_psi:calbec :      0.13s CPU      0.07s WALL (     781 calls)
     vloc_psi     :      5.32s CPU      2.89s WALL (     781 calls)
                                        0.00s GPU  (     781 calls)
     add_vuspsi   :      0.07s CPU      0.04s WALL (     781 calls)

     General routines
     calbec       :      0.20s CPU      0.12s WALL (    1104 calls)
     fft          :      0.28s CPU      0.29s WALL (     104 calls)
     ffts         :      0.00s CPU      0.00s WALL (       7 calls)
     fftw         :      5.72s CPU      3.10s WALL (   11630 calls)

     Parallel routines

     PWSCF        :      8.26s CPU      4.71s WALL


   This run was terminated on:  19:40:20   8Sep2026            

=------------------------------------------------------------------------------=
   JOB DONE.
=------------------------------------------------------------------------------=
