
     Program PWSCF v.7.5 starts on  8Sep2026 at 19:40:11 

     This program is part of the open-source Quantum ESPRESSO suite
     for quantum simulation of materials; please cite
         "P. Giannozzi et al., J. Phys.:Condens. Matter 21 395502 (2009);
         "P. Giannozzi et al., J. Phys.:Condens. Matter 29 465901 (2017);
         "P. Giannozzi et al., J. Chem. Phys. 152 154105 (2020);
          URL http://www.quantum-espresso.org", 
     in publications or presentations arising from this work. More details at
     http://www.quantum-espresso.org/quote

     Parallel version (MPI & OpenMP), running on       8 processor cores
     Number of MPI processes:                 4
     Threads/MPI process:                     2

     MPI processes distributed on     1 nodes
     3173 MiB available memory on the printing compute node when the environment starts

     Reading input from espresso.pwi
Warning: card &CELL ignored
Warning: card &FCP ignored
Warning: card &RISM ignored

     Current dimensions of program PWSCF are:
     Max number of different atomic species (ntypx) = 10
     Max number of k-points (npk) =  40000
     Max angular momentum in pseudopotentials (lmaxx) =  4
     Message from routine setup:
     using ibrav=0 with symmetry is DISCOURAGED, use correct ibrav instead

     R & G space division:  proc/nbgrp/npool/nimage =       4
     Subspace diagonalization in iterative solution of the eigenvalue problem:
     a serial algorithm will be used


     Parallelization info
     --------------------
     sticks:   dense  smooth     PW     G-vecs:    dense   smooth      PW
     Min         102     102     31                 1332     1332     241
     Max         103     103     32                 1333     1333     242
     Sum         409     409    127                 5329     5329     965

     Using Slab Decomposition



     bravais-lattice index     =            0
     lattice parameter (alat)  =       5.4104  a.u.
     unit-cell volume          =     111.9902 (a.u.)^3
     number of atoms/cell      =            1
     number of atomic types    =            1
     number of electrons       =         3.00
     number of Kohn-Sham states=            6
     kinetic-energy cutoff     =      50.0000  Ry
     charge density cutoff     =     200.0000  Ry
     scf convergence threshold =      1.0E-10
     mixing beta               =       0.7000
     number of iterations used =            8  plain     mixing
     Exchange-correlation= PBE
                           (   1   4   3   4   0   0   0)

     celldm(1)=   5.410428  celldm(2)=   0.000000  celldm(3)=   0.000000
     celldm(4)=   0.000000  celldm(5)=   0.000000  celldm(6)=   0.000000

     crystal axes: (cart. coord. in units of alat)
               a(1) = (   0.000000   0.707107   0.707107 )  
               a(2) = (   0.707107   0.000000   0.707107 )  
               a(3) = (   0.707107   0.707107   0.000000 )  

     reciprocal axes: (cart. coord. in units 2 pi/alat)
               b(1) = ( -0.707107  0.707107  0.707107 )  
               b(2) = (  0.707107 -0.707107  0.707107 )  
               b(3) = (  0.707107  0.707107 -0.707107 )  


     PseudoPot. # 1 for Al read from file:
     /home/danil/home/Molecular-and-Materials-Modeling-2026-Challenges/pseudopotentials/Al.upf
     MD5 check sum: 0b5c6c21fc59a2e497c09c32fa85f380
     Pseudo is Norm-conserving + core correction, Zval =  3.0
     Generated using ONCVPSP code by D. R. Hamann
     Using radial grid of 1876 points,  6 beta functions with: 
                l(1) =   0
                l(2) =   0
                l(3) =   1
                l(4) =   1
                l(5) =   2
                l(6) =   2

     atomic species   valence    mass     pseudopotential
     Al                3.00    26.98154     Al( 1.00)

     48 Sym. Ops., with inversion, found



   Cartesian axes

     site n.     atom                  positions (alat units)
         1        Al     tau(   1) = (   0.0000000   0.0000000   0.0000000  )

     number of k points=   104  Marzari-Vanderbilt smearing, width (Ry)=  0.0200

     Number of k-points >= 100: set verbosity='high' to print them.

     Dense  grid:     5329 G-vectors     FFT dimensions: (  25,  25,  25)

     Estimated max dynamical RAM per process >       3.71 MB

     Estimated total dynamical RAM >      14.85 MB

     Initial potential from superposition of free atoms

     starting charge       2.9976, renormalised to       3.0000
     Starting wfcs are    4 randomized atomic wfcs +    2 random wfcs

     total cpu time spent up to now is        0.2 secs

     per-process dynamical memory:    13.4 Mb

     Self-consistent Calculation

     iteration #  1     ecut=    50.00 Ry     beta= 0.70
     Davidson diagonalization with overlap
     ethr =  1.00E-02,  avg # of iterations =  6.2

     Threshold (ethr) on eigenvalues was too large:
     Diagonalizing with lowered threshold

     Davidson diagonalization with overlap
     ethr =  1.97E-04,  avg # of iterations =  3.5

     total cpu time spent up to now is        1.1 secs

     total energy              =      -4.63459471 Ry
     estimated scf accuracy    <       0.00584888 Ry

     iteration #  2     ecut=    50.00 Ry     beta= 0.70
     Davidson diagonalization with overlap
     ethr =  1.95E-04,  avg # of iterations =  1.1

     total cpu time spent up to now is        1.4 secs

     total energy              =      -4.63456869 Ry
     estimated scf accuracy    <       0.00040886 Ry

     iteration #  3     ecut=    50.00 Ry     beta= 0.70
     Davidson diagonalization with overlap
     ethr =  1.36E-05,  avg # of iterations =  3.2

     total cpu time spent up to now is        1.7 secs

     total energy              =      -4.63458642 Ry
     estimated scf accuracy    <       0.00000079 Ry

     iteration #  4     ecut=    50.00 Ry     beta= 0.70
     Davidson diagonalization with overlap
     ethr =  2.63E-08,  avg # of iterations =  3.5

     total cpu time spent up to now is        2.1 secs

     total energy              =      -4.63458769 Ry
     estimated scf accuracy    <          7.2E-09 Ry

     iteration #  5     ecut=    50.00 Ry     beta= 0.70
     Davidson diagonalization with overlap
     ethr =  2.40E-10,  avg # of iterations =  2.5

     total cpu time spent up to now is        2.4 secs

     End of self-consistent calculation

     Number of k-points >= 100: set verbosity='high' to print the bands.

     the Fermi energy is     7.8574 ev

!    total energy              =      -4.63458770 Ry
     estimated scf accuracy    <          1.1E-11 Ry
     smearing contrib. (-TS)   =      -0.00010008 Ry
     internal energy E=F+TS    =      -4.63448762 Ry

     The total energy is F=E-TS. E is the sum of the following terms:
     one-electron contribution =       2.91458079 Ry
     hartree contribution      =       0.00722138 Ry
     xc contribution           =      -2.16339255 Ry
     ewald contribution        =      -5.39289723 Ry

     convergence has been achieved in   5 iterations

     Forces acting on atoms (cartesian axes, Ry/au):

     atom    1 type  1   force =     0.00000000    0.00000000    0.00000000

     Total force =     0.000000     Total SCF correction =     0.000000


     Computing stress (Cartesian axis) and pressure

          total   stress  (Ry/bohr**3)                   (kbar)     P=       -8.65
  -0.00005880   0.00000000   0.00000000           -8.65        0.00        0.00
   0.00000000  -0.00005880   0.00000000            0.00       -8.65        0.00
   0.00000000   0.00000000  -0.00005880            0.00        0.00       -8.65


     Writing all to output data dir ./tmp/kgrid_14.save/ :
     XML data file, charge density, pseudopotentials, collected wavefunctions

     init_run     :      0.13s CPU      0.17s WALL (       1 calls)
     electrons    :      1.64s CPU      2.24s WALL (       1 calls)
     forces       :      0.02s CPU      0.02s WALL (       1 calls)
     stress       :      0.06s CPU      0.06s WALL (       1 calls)

     Called by init_run:
     wfcinit      :      0.08s CPU      0.12s WALL (       1 calls)
     potinit      :      0.01s CPU      0.01s WALL (       1 calls)
     hinit0       :      0.04s CPU      0.04s WALL (       1 calls)

     Called by electrons:
     c_bands      :      1.41s CPU      1.91s WALL (       6 calls)
     sum_band     :      0.22s CPU      0.31s WALL (       6 calls)
     v_of_rho     :      0.01s CPU      0.01s WALL (       6 calls)
     mix_rho      :      0.00s CPU      0.00s WALL (       6 calls)

     Called by c_bands:
     init_us_2    :      0.04s CPU      0.04s WALL (    1560 calls)
     cegterg      :      1.35s CPU      1.85s WALL (     624 calls)

     Called by *egterg:
     cdiaghg      :      0.07s CPU      0.08s WALL (    2612 calls)
     h_psi        :      1.20s CPU      1.66s WALL (    2820 calls)
     g_psi        :      0.00s CPU      0.01s WALL (    2092 calls)

     Called by h_psi:
     h_psi:calbec :      0.07s CPU      0.08s WALL (    2820 calls)
     vloc_psi     :      1.10s CPU      1.53s WALL (    2820 calls)
                                        0.00s GPU  (    2820 calls)
     add_vuspsi   :      0.01s CPU      0.01s WALL (    2820 calls)

     General routines
     calbec       :      0.09s CPU      0.11s WALL (    4588 calls)
     fft          :      0.03s CPU      0.03s WALL (      85 calls)
     ffts         :      0.00s CPU      0.00s WALL (       6 calls)
     fftw         :      1.17s CPU      1.61s WALL (   26268 calls)

     Parallel routines

     PWSCF        :      1.92s CPU      2.57s WALL


   This run was terminated on:  19:40:13   8Sep2026            

=------------------------------------------------------------------------------=
   JOB DONE.
=------------------------------------------------------------------------------=
