
     Program PWSCF v.7.5 starts on  8Sep2026 at 19:39:35 

     This program is part of the open-source Quantum ESPRESSO suite
     for quantum simulation of materials; please cite
         "P. Giannozzi et al., J. Phys.:Condens. Matter 21 395502 (2009);
         "P. Giannozzi et al., J. Phys.:Condens. Matter 29 465901 (2017);
         "P. Giannozzi et al., J. Chem. Phys. 152 154105 (2020);
          URL http://www.quantum-espresso.org", 
     in publications or presentations arising from this work. More details at
     http://www.quantum-espresso.org/quote

     Parallel version (MPI & OpenMP), running on       8 processor cores
     Number of MPI processes:                 4
     Threads/MPI process:                     2

     MPI processes distributed on     1 nodes
     2879 MiB available memory on the printing compute node when the environment starts

     Reading input from espresso.pwi
Warning: card &CELL ignored
Warning: card &FCP ignored
Warning: card &RISM ignored

     Current dimensions of program PWSCF are:
     Max number of different atomic species (ntypx) = 10
     Max number of k-points (npk) =  40000
     Max angular momentum in pseudopotentials (lmaxx) =  4
     Message from routine setup:
     using ibrav=0 with symmetry is DISCOURAGED, use correct ibrav instead

     R & G space division:  proc/nbgrp/npool/nimage =       4
     Subspace diagonalization in iterative solution of the eigenvalue problem:
     a serial algorithm will be used


     Parallelization info
     --------------------
     sticks:   dense  smooth     PW     G-vecs:    dense   smooth      PW
     Min          40      40     15                  340      340      82
     Max          41      41     16                  342      342      83
     Sum         163     163     61                 1363     1363     331

     Using Slab Decomposition



     bravais-lattice index     =            0
     lattice parameter (alat)  =       5.4104  a.u.
     unit-cell volume          =     111.9902 (a.u.)^3
     number of atoms/cell      =            1
     number of atomic types    =            1
     number of electrons       =         3.00
     number of Kohn-Sham states=            6
     kinetic-energy cutoff     =      20.0000  Ry
     charge density cutoff     =      80.0000  Ry
     scf convergence threshold =      1.0E-10
     mixing beta               =       0.7000
     number of iterations used =            8  plain     mixing
     Exchange-correlation= PBE
                           (   1   4   3   4   0   0   0)

     celldm(1)=   5.410428  celldm(2)=   0.000000  celldm(3)=   0.000000
     celldm(4)=   0.000000  celldm(5)=   0.000000  celldm(6)=   0.000000

     crystal axes: (cart. coord. in units of alat)
               a(1) = (   0.000000   0.707107   0.707107 )  
               a(2) = (   0.707107   0.000000   0.707107 )  
               a(3) = (   0.707107   0.707107   0.000000 )  

     reciprocal axes: (cart. coord. in units 2 pi/alat)
               b(1) = ( -0.707107  0.707107  0.707107 )  
               b(2) = (  0.707107 -0.707107  0.707107 )  
               b(3) = (  0.707107  0.707107 -0.707107 )  


     PseudoPot. # 1 for Al read from file:
     /home/danil/home/Molecular-and-Materials-Modeling-2026-Challenges/pseudopotentials/Al.upf
     MD5 check sum: 0b5c6c21fc59a2e497c09c32fa85f380
     Pseudo is Norm-conserving + core correction, Zval =  3.0
     Generated using ONCVPSP code by D. R. Hamann
     Using radial grid of 1876 points,  6 beta functions with: 
                l(1) =   0
                l(2) =   0
                l(3) =   1
                l(4) =   1
                l(5) =   2
                l(6) =   2

     atomic species   valence    mass     pseudopotential
     Al                3.00    26.98154     Al( 1.00)

     48 Sym. Ops., with inversion, found



   Cartesian axes

     site n.     atom                  positions (alat units)
         1        Al     tau(   1) = (   0.0000000   0.0000000   0.0000000  )

     number of k points=    29  Marzari-Vanderbilt smearing, width (Ry)=  0.0200
                       cart. coord. in units 2pi/alat
        k(    1) = (   0.0000000   0.0000000   0.0000000), wk =   0.0039062
        k(    2) = (   0.0883883   0.0883883  -0.0883883), wk =   0.0312500
        k(    3) = (   0.1767767   0.1767767  -0.1767767), wk =   0.0312500
        k(    4) = (   0.2651650   0.2651650  -0.2651650), wk =   0.0312500
        k(    5) = (  -0.3535534  -0.3535534   0.3535534), wk =   0.0156250
        k(    6) = (   0.1767767   0.0000000   0.0000000), wk =   0.0234375
        k(    7) = (   0.2651650   0.0883883  -0.0883883), wk =   0.0937500
        k(    8) = (   0.3535534   0.1767767  -0.1767767), wk =   0.0937500
        k(    9) = (  -0.2651650  -0.4419417   0.4419417), wk =   0.0937500
        k(   10) = (  -0.1767767  -0.3535534   0.3535534), wk =   0.0937500
        k(   11) = (  -0.0883883  -0.2651650   0.2651650), wk =   0.0937500
        k(   12) = (   0.0000000  -0.1767767   0.1767767), wk =   0.0468750
        k(   13) = (   0.3535534   0.0000000   0.0000000), wk =   0.0234375
        k(   14) = (   0.4419417   0.0883883  -0.0883883), wk =   0.0937500
        k(   15) = (  -0.1767767  -0.5303301   0.5303301), wk =   0.0937500
        k(   16) = (  -0.0883883  -0.4419417   0.4419417), wk =   0.0937500
        k(   17) = (   0.0000000  -0.3535534   0.3535534), wk =   0.0468750
        k(   18) = (   0.5303301   0.0000000   0.0000000), wk =   0.0234375
        k(   19) = (  -0.0883883  -0.6187184   0.6187184), wk =   0.0937500
        k(   20) = (   0.0000000  -0.5303301   0.5303301), wk =   0.0468750
        k(   21) = (  -0.7071068   0.0000000   0.0000000), wk =   0.0117188
        k(   22) = (   0.3535534   0.1767767   0.0000000), wk =   0.0937500
        k(   23) = (  -0.2651650  -0.4419417   0.6187184), wk =   0.1875000
        k(   24) = (  -0.1767767  -0.3535534   0.5303301), wk =   0.0937500
        k(   25) = (  -0.1767767  -0.5303301   0.7071068), wk =   0.0937500
        k(   26) = (  -0.0883883  -0.4419417   0.6187184), wk =   0.1875000
        k(   27) = (   0.0000000  -0.3535534   0.5303301), wk =   0.0937500
        k(   28) = (  -0.7071068   0.1767767   0.0000000), wk =   0.0468750
        k(   29) = (  -0.7071068   0.3535534   0.0000000), wk =   0.0234375

     Dense  grid:     1363 G-vectors     FFT dimensions: (  15,  15,  15)

     Estimated max dynamical RAM per process >       1.07 MB

     Estimated total dynamical RAM >       4.30 MB

     Initial potential from superposition of free atoms

     starting charge       2.9976, renormalised to       3.0000
     Starting wfcs are    4 randomized atomic wfcs +    2 random wfcs

     total cpu time spent up to now is        0.1 secs

     per-process dynamical memory:    11.1 Mb

     Self-consistent Calculation

     iteration #  1     ecut=    20.00 Ry     beta= 0.70
     Davidson diagonalization with overlap
     ethr =  1.00E-02,  avg # of iterations =  5.8

     Threshold (ethr) on eigenvalues was too large:
     Diagonalizing with lowered threshold

     Davidson diagonalization with overlap
     ethr =  2.05E-04,  avg # of iterations =  3.3

     total cpu time spent up to now is        0.2 secs

     total energy              =      -4.63123581 Ry
     estimated scf accuracy    <       0.00607834 Ry

     iteration #  2     ecut=    20.00 Ry     beta= 0.70
     Davidson diagonalization with overlap
     ethr =  2.03E-04,  avg # of iterations =  1.0

     total cpu time spent up to now is        0.3 secs

     total energy              =      -4.63118009 Ry
     estimated scf accuracy    <       0.00043819 Ry

     iteration #  3     ecut=    20.00 Ry     beta= 0.70
     Davidson diagonalization with overlap
     ethr =  1.46E-05,  avg # of iterations =  2.2

     total cpu time spent up to now is        0.3 secs

     total energy              =      -4.63119376 Ry
     estimated scf accuracy    <       0.00000091 Ry

     iteration #  4     ecut=    20.00 Ry     beta= 0.70
     Davidson diagonalization with overlap
     ethr =  3.02E-08,  avg # of iterations =  3.1

     total cpu time spent up to now is        0.4 secs

     total energy              =      -4.63119432 Ry
     estimated scf accuracy    <       0.00000003 Ry

     iteration #  5     ecut=    20.00 Ry     beta= 0.70
     Davidson diagonalization with overlap
     ethr =  9.76E-10,  avg # of iterations =  1.6

     total cpu time spent up to now is        0.4 secs

     total energy              =      -4.63119433 Ry
     estimated scf accuracy    <          6.3E-10 Ry

     iteration #  6     ecut=    20.00 Ry     beta= 0.70
     Davidson diagonalization with overlap
     ethr =  2.09E-11,  avg # of iterations =  2.4

     total cpu time spent up to now is        0.5 secs

     End of self-consistent calculation

          k = 0.0000 0.0000 0.0000 (   169 PWs)   bands (ev):

    -3.2266  20.5501  20.5501  22.0680  22.0680  22.0680

          k = 0.0884 0.0884-0.0884 (   169 PWs)   bands (ev):

    -2.8035  16.2384  19.6109  19.6109  22.6142  23.6149

          k = 0.1768 0.1768-0.1768 (   162 PWs)   bands (ev):

    -1.5405  11.3511  18.8441  18.8441  22.2284  22.7108

          k = 0.2652 0.2652-0.2652 (   162 PWs)   bands (ev):

     0.5415   7.0290  18.7574  18.7574  20.7092  20.7093

          k =-0.3536-0.3536 0.3536 (   168 PWs)   bands (ev):

     3.3166   3.5059  19.3560  19.3560  19.3894  19.3894

          k = 0.1768 0.0000 0.0000 (   169 PWs)   bands (ev):

    -2.6627  17.8495  17.8495  18.0689  20.8673  22.5631

          k = 0.2652 0.0884-0.0884 (   166 PWs)   bands (ev):

    -1.6805  13.2186  16.7788  18.2676  19.5384  22.0691

          k = 0.3536 0.1768-0.1768 (   168 PWs)   bands (ev):

     0.1264   8.7345  16.4263  17.1396  18.1072  24.1949

          k =-0.2652-0.4419 0.4419 (   168 PWs)   bands (ev):

     2.7269   4.8968  15.5055  16.8008  18.5415  22.6730

          k =-0.1768-0.3536 0.3536 (   168 PWs)   bands (ev):

     1.7755   6.0922  14.6224  17.9050  19.7323  21.8242

          k =-0.0884-0.2652 0.2652 (   165 PWs)   bands (ev):

    -0.5659  10.1459  14.5222  19.7166  21.6290  21.6628

          k = 0.0000-0.1768 0.1768 (   164 PWs)   bands (ev):

    -2.1004  14.3741  15.6067  21.6518  22.0279  23.2903

          k = 0.3536 0.0000 0.0000 (   165 PWs)   bands (ev):

    -0.9828  15.3967  15.4465  15.4465  16.1769  18.8835

          k = 0.4419 0.0884-0.0884 (   165 PWs)   bands (ev):

     0.5392  11.1377  13.4892  14.8445  16.2839  20.3223

          k =-0.1768-0.5303 0.5303 (   171 PWs)   bands (ev):

     2.8570   7.1464  11.5566  14.9667  16.6176  24.0315

          k =-0.0884-0.4419 0.4419 (   174 PWs)   bands (ev):

     3.8057   5.9207  10.4276  15.8230  17.6091  25.6003

          k = 0.0000-0.3536 0.3536 (   170 PWs)   bands (ev):

     1.2284   9.1539  10.6374  17.4123  19.3366  24.9033

          k = 0.5303 0.0000 0.0000 (   170 PWs)   bands (ev):

     1.7689  10.4835  13.7376  13.9935  13.9935  17.4301

          k =-0.0884-0.6187 0.6187 (   172 PWs)   bands (ev):

     3.7714   8.2700  10.1160  13.8721  15.2118  19.3749

          k = 0.0000-0.5303 0.5303 (   172 PWs)   bands (ev):

     6.0256   6.5487   7.4757  14.4830  16.0894  23.6059

          k =-0.7071 0.0000 0.0000 (   174 PWs)   bands (ev):

     4.9813   6.2813  13.1774  13.5089  13.5089  16.9110

          k = 0.3536 0.1768 0.0000 (   166 PWs)   bands (ev):

    -0.4274  11.7717  13.1584  16.6995  20.0634  21.8459

          k =-0.2652-0.4419 0.6187 (   169 PWs)   bands (ev):

     1.6375   8.0399  12.4816  14.5468  20.6922  22.7923

          k =-0.1768-0.3536 0.5303 (   168 PWs)   bands (ev):

     4.3636   4.5999  12.8887  13.3429  21.2341  21.6386

          k =-0.1768-0.5303 0.7071 (   176 PWs)   bands (ev):

     2.3126  10.1993  10.9023  11.7750  18.5640  20.5657

          k =-0.0884-0.4419 0.6187 (   170 PWs)   bands (ev):

     4.8388   6.9733   9.3541  11.5171  19.7513  23.9249

          k = 0.0000-0.3536 0.5303 (   171 PWs)   bands (ev):

     3.9365   7.5873   9.0357  12.6283  20.9718  24.2259

          k =-0.7071 0.1768 0.0000 (   172 PWs)   bands (ev):

     5.5042   6.8262   9.6754  11.1634  18.0612  20.1054

          k =-0.7071 0.3536 0.0000 (   176 PWs)   bands (ev):

     7.0625   7.0625   8.0780   8.9545  23.7489  24.3276

     the Fermi energy is     7.8663 ev

!    total energy              =      -4.63119433 Ry
     estimated scf accuracy    <          1.3E-12 Ry
     smearing contrib. (-TS)   =       0.00004813 Ry
     internal energy E=F+TS    =      -4.63124245 Ry

     The total energy is F=E-TS. E is the sum of the following terms:
     one-electron contribution =       2.91694254 Ry
     hartree contribution      =       0.00779245 Ry
     xc contribution           =      -2.16308017 Ry
     ewald contribution        =      -5.39289727 Ry

     convergence has been achieved in   6 iterations

     Forces acting on atoms (cartesian axes, Ry/au):

     atom    1 type  1   force =     0.00000000    0.00000000    0.00000000

     Total force =     0.000000     Total SCF correction =     0.000000


     Computing stress (Cartesian axis) and pressure

          total   stress  (Ry/bohr**3)                   (kbar)     P=       -9.85
  -0.00006696   0.00000000   0.00000000           -9.85        0.00        0.00
   0.00000000  -0.00006696   0.00000000            0.00       -9.85        0.00
   0.00000000   0.00000000  -0.00006696            0.00        0.00       -9.85


     Writing all to output data dir ./tmp/ecut_20.save/ :
     XML data file, charge density, pseudopotentials, collected wavefunctions

     init_run     :      0.04s CPU      0.05s WALL (       1 calls)
     electrons    :      0.28s CPU      0.43s WALL (       1 calls)
     forces       :      0.00s CPU      0.00s WALL (       1 calls)
     stress       :      0.01s CPU      0.01s WALL (       1 calls)

     Called by init_run:
     wfcinit      :      0.01s CPU      0.02s WALL (       1 calls)
     potinit      :      0.00s CPU      0.00s WALL (       1 calls)
     hinit0       :      0.02s CPU      0.02s WALL (       1 calls)

     Called by electrons:
     c_bands      :      0.24s CPU      0.36s WALL (       7 calls)
     sum_band     :      0.04s CPU      0.06s WALL (       7 calls)
     v_of_rho     :      0.00s CPU      0.00s WALL (       7 calls)
     mix_rho      :      0.00s CPU      0.00s WALL (       7 calls)

     Called by c_bands:
     init_us_2    :      0.00s CPU      0.00s WALL (     493 calls)
     cegterg      :      0.23s CPU      0.35s WALL (     203 calls)

     Called by *egterg:
     cdiaghg      :      0.02s CPU      0.02s WALL (     735 calls)
     h_psi        :      0.20s CPU      0.30s WALL (     793 calls)
     g_psi        :      0.00s CPU      0.00s WALL (     561 calls)

     Called by h_psi:
     h_psi:calbec :      0.01s CPU      0.02s WALL (     793 calls)
     vloc_psi     :      0.18s CPU      0.27s WALL (     793 calls)
                                        0.00s GPU  (     793 calls)
     add_vuspsi   :      0.00s CPU      0.00s WALL (     793 calls)

     General routines
     calbec       :      0.02s CPU      0.02s WALL (    1286 calls)
     fft          :      0.01s CPU      0.02s WALL (      95 calls)
     ffts         :      0.00s CPU      0.00s WALL (       7 calls)
     fftw         :      0.19s CPU      0.27s WALL (    7912 calls)

     Parallel routines

     PWSCF        :      0.36s CPU      0.53s WALL


   This run was terminated on:  19:39:35   8Sep2026            

=------------------------------------------------------------------------------=
   JOB DONE.
=------------------------------------------------------------------------------=
