3
Properties=species:S:1:pos:R:3:forces:R:3:energies:R:1 energy=-14.160288596534972 stress="-2.1530907921923376e-45 -8.150326656870452e-27 6.64497383659945e-27 -8.150326656870452e-27 -8.265733288467656e-08 3.0684309032379647e-21 6.64497383659945e-27 3.0684309032379647e-21 -3.272153924131842e-08" free_energy=-14.160288596534972 pbc="F F F"
O        0.00000000       0.00000000       0.12058581      -0.00000000      -0.00000000       0.00814729      -7.10837754
H        0.00000000       0.76702864      -0.47770891       0.00000000       0.00802665      -0.00407364      -3.52595553
H        0.00000000      -0.76702864      -0.47770891       0.00000000      -0.00802665      -0.00407364      -3.52595553
