C  Hg
 1.0000000000000000
     7.4031720161000001    0.0000000000000000    0.0000000000000000
    -3.7015860081000000    6.4113350346000004    0.0000000000000000
     0.0000000000000000    0.0000000000000000   15.0000000000000000
 C   Hg 
  18   1
Cartesian
  0.0000000000000000  0.0000000000000000  7.5000000000000000
 -1.2338620030000000  2.1371116780000001  7.5000000000000000
 -2.4677240050000000  4.2742233560000003  7.5000000000000000
  2.4677240050000000  0.0000000000000000  7.5000000000000000
  1.2338620030000000  2.1371116780000001  7.5000000000000000
  0.0000000000000000  4.2742233560000003  7.5000000000000000
  4.9354480110000001  0.0000000000000000  7.5000000000000000
  3.7015860080000000  2.1371116780000001  7.5000000000000000
  2.4677240050000000  4.2742233560000003  7.5000000000000000
 -0.0000000120000000  1.4247411260000000  7.5000000000000000
 -1.2338620149999999  3.5618528039999999  7.5000000000000000
 -2.4677240170000001  5.6989644830000001  7.5000000000000000
  2.4677239929999999  1.4247411260000000  7.5000000000000000
  1.2338619909999999  3.5618528039999999  7.5000000000000000
 -0.0000000120000000  5.6989644830000001  7.5000000000000000
  4.9354479990000000  1.4247411260000000  7.5000000000000000
  3.7015859959999999  3.5618528039999999  7.5000000000000000
  2.4677239929999999  5.6989644830000001  7.5000000000000000
  3.0846550060000002  1.7809264020000000 10.9000000000000004
