&CONTROL
   verbosity        = 'low'
   tstress          = .true.
   tprnfor          = .true.
   outdir           = './tmp'
   prefix           = 'chg_hollow'
   pseudo_dir       = './'
/
&SYSTEM
   ibrav            = 0
   nat              = 19
   ntyp             = 2
   ecutwfc          = 80
   occupations      = 'smearing'
   degauss          = 0.01
   smearing         = 'gauss'
   vdw_corr         = 'DFT-D3'
   dftd3_version    = 4
/
&ELECTRONS
   conv_thr         = 1e-10
/
&IONS
/
&CELL
/
&FCP
/
&RISM
/
ATOMIC_SPECIES
C 12.011 C.upf
Hg 200.592 Hg.upf

K_POINTS automatic
1 1 1  0 0 0

CELL_PARAMETERS angstrom
7.40317201610000 0.00000000000000 0.00000000000000
-3.70158600810000 6.41133503460000 0.00000000000000
0.00000000000000 0.00000000000000 15.00000000000000

ATOMIC_POSITIONS angstrom
C -0.0255290538 0.0147392061 7.5007100282  
C -1.2338620030 2.1076332682 7.5007100282  
C -2.4420557085 4.2890429557 7.5002298312  
C 2.4677240050 -0.0296391999 7.5002298312  
C 1.2591220646 2.1516955852 7.4990289233  
C -0.0256682965 4.2890429557 7.5002298312  
C 4.9609770648 0.0147392061 7.5007100282  
C 3.6763259464 2.1516955852 7.4990289233  
C 2.4677240050 4.2450555403 7.4990289233  
C -0.0256683993 1.4099214812 7.5002297592  
C -1.2338620150 3.5913312139 7.5007100757  
C -2.4421949714 5.6842252812 7.5007100757  
C 2.4677239930 1.4539088488 7.4990289225  
C 1.2591219835 3.5472689430 7.4990289225  
C -0.0255290576 5.6842252812 7.5007100757  
C 4.9611163863 1.4099214812 7.5002297592  
C 3.6763260035 3.5472689430 7.4990289225  
C 2.4677239930 5.7286037766 7.5002297592  
Hg 2.4677240050 2.8494822410 10.9001874008  

