C  Hg
 1.0000000000000000
     7.4031720161000001    0.0000000000000000    0.0000000000000000
    -3.7015860081000000    6.4113350346000004    0.0000000000000000
     0.0000000000000000    0.0000000000000000   15.0000000000000000
 C   Hg 
  18   1
Cartesian
  1.1949897793046012  0.5982506310896422  7.4622720858240319
 -0.0389383702898655  2.7351684122852107  7.4711458370169259
 -1.2724361967326880  4.8720185711923145  7.4715614854922894
  3.6628510527130977  0.5977224384074634  7.4610967962935959
  2.4289454994205952  2.7355309426168355  7.4620959603664856
  1.1954388761246388  4.8720981882057224  7.4734305257924474
  6.1307661336144044  0.5977008374108399  7.4735460336474180
  4.8967412409718696  2.7347035403099280  7.4714338592625928
  3.6634825833393863  4.8721496421848229  7.4736705918915085
  1.1547118665495333  2.0464009217315988  7.4612679780547575
 -0.0788249552838368  4.1832115049005436  7.4731338780582641
 -1.3128923494272022  6.3199763438703878  7.4620069022657747
  3.6226099497552853  2.0458405991016915  7.4619682181394431
  2.3891823736512134  4.1833969713577339  7.4709649878956030
  1.1549150762523703  6.3200766315246497  7.4715002894002174
  6.0902190344908052  2.0456481632279653  7.4733405760107718
  4.8567732036680882  4.1827399476345537  7.4738268178239684
  3.6228294100901968  6.3201685132758216  7.4711812587264124
  2.4078218195932930  1.3218039375622705 10.8860159987415361
