C  Hg
 1.0000000000000000
     7.4031720161000001    0.0000000000000000    0.0000000000000000
    -3.7015860081000000    6.4113350346000004    0.0000000000000000
     0.0000000000000000    0.0000000000000000   15.0000000000000000
 C   Hg 
  18   1
Cartesian
  0.0000000000000000  0.0000000000000000  7.5051512113705376
 -1.2338565391385050  2.1371226846728466  7.5002931849974601
 -2.4677117014611292  4.2742225827306459  7.5002931849974601
  2.4677308383050098 -0.0000102312412850  7.5002931849974601
  1.2338565391385050  2.1371226846728466  7.5002931849974601
 -0.0000000000000000  4.2742233560000003  7.5066103429031976
  4.9354411776949974 -0.0000102312412850  7.5002931849974601
  3.7015860080000000  2.1371116780000001  7.4818652799823342
  2.4677117014611292  4.2742225827306459  7.5002931849974601
 -0.0000000120000000  1.4246540799381224  7.5048556359461180
 -1.2338283863580854  3.5618721685038812  7.5033490081293568
 -2.4677993525039499  5.6990080028447538  7.5048556359461180
  2.4675827267358068  1.4246595652279619  7.4901643740744372
  1.2338283623580855  3.5618721685038812  7.5033490081293568
 -0.0000000120000000  5.6989257152897377  7.5033490081293568
  4.9355892652641931  1.4246595652279619  7.4901643740744372
  3.7015859959999999  3.5620159638903557  7.4901643740744372
  2.4677993285039497  5.6990080028447538  7.5048556359461180
  3.7015860080000000  2.1371116780000001 10.9095072128854671
