
     Program PWSCF v.7.5 starts on  8Sep2026 at 19:40: 3 

     This program is part of the open-source Quantum ESPRESSO suite
     for quantum simulation of materials; please cite
         "P. Giannozzi et al., J. Phys.:Condens. Matter 21 395502 (2009);
         "P. Giannozzi et al., J. Phys.:Condens. Matter 29 465901 (2017);
         "P. Giannozzi et al., J. Chem. Phys. 152 154105 (2020);
          URL http://www.quantum-espresso.org", 
     in publications or presentations arising from this work. More details at
     http://www.quantum-espresso.org/quote

     Parallel version (MPI & OpenMP), running on       8 processor cores
     Number of MPI processes:                 4
     Threads/MPI process:                     2

     MPI processes distributed on     1 nodes
     3090 MiB available memory on the printing compute node when the environment starts

     Reading input from espresso.pwi
Warning: card &CELL ignored
Warning: card &FCP ignored
Warning: card &RISM ignored

     Current dimensions of program PWSCF are:
     Max number of different atomic species (ntypx) = 10
     Max number of k-points (npk) =  40000
     Max angular momentum in pseudopotentials (lmaxx) =  4
     Message from routine setup:
     using ibrav=0 with symmetry is DISCOURAGED, use correct ibrav instead

     R & G space division:  proc/nbgrp/npool/nimage =       4
     Subspace diagonalization in iterative solution of the eigenvalue problem:
     a serial algorithm will be used


     Parallelization info
     --------------------
     sticks:   dense  smooth     PW     G-vecs:    dense   smooth      PW
     Min         102     102     31                 1332     1332     241
     Max         103     103     32                 1333     1333     242
     Sum         409     409    127                 5329     5329     965

     Using Slab Decomposition



     bravais-lattice index     =            0
     lattice parameter (alat)  =       5.4104  a.u.
     unit-cell volume          =     111.9902 (a.u.)^3
     number of atoms/cell      =            1
     number of atomic types    =            1
     number of electrons       =         3.00
     number of Kohn-Sham states=            6
     kinetic-energy cutoff     =      50.0000  Ry
     charge density cutoff     =     200.0000  Ry
     scf convergence threshold =      1.0E-10
     mixing beta               =       0.7000
     number of iterations used =            8  plain     mixing
     Exchange-correlation= PBE
                           (   1   4   3   4   0   0   0)

     celldm(1)=   5.410428  celldm(2)=   0.000000  celldm(3)=   0.000000
     celldm(4)=   0.000000  celldm(5)=   0.000000  celldm(6)=   0.000000

     crystal axes: (cart. coord. in units of alat)
               a(1) = (   0.000000   0.707107   0.707107 )  
               a(2) = (   0.707107   0.000000   0.707107 )  
               a(3) = (   0.707107   0.707107   0.000000 )  

     reciprocal axes: (cart. coord. in units 2 pi/alat)
               b(1) = ( -0.707107  0.707107  0.707107 )  
               b(2) = (  0.707107 -0.707107  0.707107 )  
               b(3) = (  0.707107  0.707107 -0.707107 )  


     PseudoPot. # 1 for Al read from file:
     /home/danil/home/Molecular-and-Materials-Modeling-2026-Challenges/pseudopotentials/Al.upf
     MD5 check sum: 0b5c6c21fc59a2e497c09c32fa85f380
     Pseudo is Norm-conserving + core correction, Zval =  3.0
     Generated using ONCVPSP code by D. R. Hamann
     Using radial grid of 1876 points,  6 beta functions with: 
                l(1) =   0
                l(2) =   0
                l(3) =   1
                l(4) =   1
                l(5) =   2
                l(6) =   2

     atomic species   valence    mass     pseudopotential
     Al                3.00    26.98154     Al( 1.00)

     48 Sym. Ops., with inversion, found



   Cartesian axes

     site n.     atom                  positions (alat units)
         1        Al     tau(   1) = (   0.0000000   0.0000000   0.0000000  )

     number of k points=    47  Marzari-Vanderbilt smearing, width (Ry)=  0.0200
                       cart. coord. in units 2pi/alat
        k(    1) = (   0.0000000   0.0000000   0.0000000), wk =   0.0020000
        k(    2) = (   0.0707107   0.0707107  -0.0707107), wk =   0.0160000
        k(    3) = (   0.1414214   0.1414214  -0.1414214), wk =   0.0160000
        k(    4) = (   0.2121320   0.2121320  -0.2121320), wk =   0.0160000
        k(    5) = (   0.2828427   0.2828427  -0.2828427), wk =   0.0160000
        k(    6) = (  -0.3535534  -0.3535534   0.3535534), wk =   0.0080000
        k(    7) = (   0.1414214   0.0000000   0.0000000), wk =   0.0120000
        k(    8) = (   0.2121320   0.0707107  -0.0707107), wk =   0.0480000
        k(    9) = (   0.2828427   0.1414214  -0.1414214), wk =   0.0480000
        k(   10) = (   0.3535534   0.2121320  -0.2121320), wk =   0.0480000
        k(   11) = (  -0.2828427  -0.4242641   0.4242641), wk =   0.0480000
        k(   12) = (  -0.2121320  -0.3535534   0.3535534), wk =   0.0480000
        k(   13) = (  -0.1414214  -0.2828427   0.2828427), wk =   0.0480000
        k(   14) = (  -0.0707107  -0.2121320   0.2121320), wk =   0.0480000
        k(   15) = (   0.0000000  -0.1414214   0.1414214), wk =   0.0240000
        k(   16) = (   0.2828427   0.0000000   0.0000000), wk =   0.0120000
        k(   17) = (   0.3535534   0.0707107  -0.0707107), wk =   0.0480000
        k(   18) = (   0.4242641   0.1414214  -0.1414214), wk =   0.0480000
        k(   19) = (  -0.2121320  -0.4949747   0.4949747), wk =   0.0480000
        k(   20) = (  -0.1414214  -0.4242641   0.4242641), wk =   0.0480000
        k(   21) = (  -0.0707107  -0.3535534   0.3535534), wk =   0.0480000
        k(   22) = (   0.0000000  -0.2828427   0.2828427), wk =   0.0240000
        k(   23) = (   0.4242641   0.0000000   0.0000000), wk =   0.0120000
        k(   24) = (   0.4949747   0.0707107  -0.0707107), wk =   0.0480000
        k(   25) = (  -0.1414214  -0.5656854   0.5656854), wk =   0.0480000
        k(   26) = (  -0.0707107  -0.4949747   0.4949747), wk =   0.0480000
        k(   27) = (  -0.0000000  -0.4242641   0.4242641), wk =   0.0240000
        k(   28) = (   0.5656854   0.0000000   0.0000000), wk =   0.0120000
        k(   29) = (  -0.0707107  -0.6363961   0.6363961), wk =   0.0480000
        k(   30) = (   0.0000000  -0.5656854   0.5656854), wk =   0.0240000
        k(   31) = (  -0.7071068   0.0000000   0.0000000), wk =   0.0060000
        k(   32) = (   0.2828427   0.1414214   0.0000000), wk =   0.0480000
        k(   33) = (   0.3535534   0.2121320  -0.0707107), wk =   0.0960000
        k(   34) = (  -0.2828427  -0.4242641   0.5656854), wk =   0.0960000
        k(   35) = (  -0.2121320  -0.3535534   0.4949747), wk =   0.0480000
        k(   36) = (   0.4242641   0.1414214  -0.0000000), wk =   0.0480000
        k(   37) = (  -0.2121320  -0.4949747   0.6363961), wk =   0.0960000
        k(   38) = (  -0.1414214  -0.4242641   0.5656854), wk =   0.0960000
        k(   39) = (  -0.0707107  -0.3535534   0.4949747), wk =   0.0960000
        k(   40) = (   0.0000000  -0.2828427   0.4242641), wk =   0.0480000
        k(   41) = (  -0.1414214  -0.5656854   0.7071068), wk =   0.0480000
        k(   42) = (  -0.0707107  -0.4949747   0.6363961), wk =   0.0960000
        k(   43) = (  -0.0000000  -0.4242641   0.5656854), wk =   0.0480000
        k(   44) = (  -0.7071068   0.1414214   0.0000000), wk =   0.0240000
        k(   45) = (  -0.1414214  -0.4242641   0.7071068), wk =   0.0480000
        k(   46) = (  -0.0707107  -0.3535534   0.6363961), wk =   0.0480000
        k(   47) = (  -0.7071068   0.2828427   0.0000000), wk =   0.0240000

     Dense  grid:     5329 G-vectors     FFT dimensions: (  25,  25,  25)

     Estimated max dynamical RAM per process >       2.84 MB

     Estimated total dynamical RAM >      11.36 MB

     Initial potential from superposition of free atoms

     starting charge       2.9976, renormalised to       3.0000
     Starting wfcs are    4 randomized atomic wfcs +    2 random wfcs

     total cpu time spent up to now is        0.1 secs

     per-process dynamical memory:    12.5 Mb

     Self-consistent Calculation

     iteration #  1     ecut=    50.00 Ry     beta= 0.70
     Davidson diagonalization with overlap
     ethr =  1.00E-02,  avg # of iterations =  6.3

     Threshold (ethr) on eigenvalues was too large:
     Diagonalizing with lowered threshold

     Davidson diagonalization with overlap
     ethr =  1.96E-04,  avg # of iterations =  3.5

     total cpu time spent up to now is        0.6 secs

     total energy              =      -4.63402511 Ry
     estimated scf accuracy    <       0.00578766 Ry

     iteration #  2     ecut=    50.00 Ry     beta= 0.70
     Davidson diagonalization with overlap
     ethr =  1.93E-04,  avg # of iterations =  1.0

     total cpu time spent up to now is        0.7 secs

     total energy              =      -4.63399713 Ry
     estimated scf accuracy    <       0.00040064 Ry

     iteration #  3     ecut=    50.00 Ry     beta= 0.70
     Davidson diagonalization with overlap
     ethr =  1.34E-05,  avg # of iterations =  3.4

     total cpu time spent up to now is        0.9 secs

     total energy              =      -4.63401497 Ry
     estimated scf accuracy    <       0.00000080 Ry

     iteration #  4     ecut=    50.00 Ry     beta= 0.70
     Davidson diagonalization with overlap
     ethr =  2.67E-08,  avg # of iterations =  3.1

     total cpu time spent up to now is        1.0 secs

     total energy              =      -4.63401618 Ry
     estimated scf accuracy    <       0.00000001 Ry

     iteration #  5     ecut=    50.00 Ry     beta= 0.70
     Davidson diagonalization with overlap
     ethr =  3.57E-10,  avg # of iterations =  2.5

     total cpu time spent up to now is        1.2 secs

     End of self-consistent calculation

          k = 0.0000 0.0000 0.0000 (   645 PWs)   bands (ev):

    -3.2289  20.4485  20.4486  21.8798  21.8799  21.8799

          k = 0.0707 0.0707-0.0707 (   661 PWs)   bands (ev):

    -2.9583  17.1635  19.7149  19.7149  22.5617  23.0146

          k = 0.1414 0.1414-0.1414 (   661 PWs)   bands (ev):

    -2.1495  13.1832  18.9565  18.9565  22.2849  23.4283

          k = 0.2121 0.2121-0.2121 (   652 PWs)   bands (ev):

    -0.8114   9.5017  18.6060  18.6060  21.6937  21.6937

          k = 0.2828 0.2828-0.2828 (   664 PWs)   bands (ev):

     1.0418   6.2260  18.7005  18.7005  20.2548  20.2550

          k =-0.3536-0.3536 0.3536 (   652 PWs)   bands (ev):

     3.2933   3.4984  19.2042  19.2042  19.2974  19.2974

          k = 0.1414 0.0000 0.0000 (   665 PWs)   bands (ev):

    -2.8682  18.3199  18.3199  18.6187  21.0968  23.7313

          k = 0.2121 0.0707-0.0707 (   667 PWs)   bands (ev):

    -2.2392  14.6471  17.3460  18.7497  21.1358  21.9463

          k = 0.2828 0.1414-0.1414 (   659 PWs)   bands (ev):

    -1.0781  10.8909  16.8231  18.4197  19.1377  23.9629

          k = 0.3536 0.2121-0.2121 (   658 PWs)   bands (ev):

     0.6024   7.4893  16.7573  17.4638  18.4281  22.9440

          k =-0.2828-0.4243 0.4243 (   662 PWs)   bands (ev):

     2.7815   4.5211  16.2709  17.1509  18.8672  21.8141

          k =-0.2121-0.3536 0.3536 (   665 PWs)   bands (ev):

     2.0024   5.4571  15.5492  18.0039  19.7795  21.1218

          k =-0.1414-0.2828 0.2828 (   659 PWs)   bands (ev):

    -0.0144   8.5722  15.3106  19.3042  20.8821  21.1442

          k =-0.0707-0.2121 0.2121 (   658 PWs)   bands (ev):

    -1.5236  12.0820  15.5726  20.8339  21.2438  22.9023

          k = 0.0000-0.1414 0.1414 (   660 PWs)   bands (ev):

    -2.5084  15.5699  16.6432  21.1496  22.1921  23.3857

          k = 0.2828 0.0000 0.0000 (   665 PWs)   bands (ev):

    -1.7915  16.1960  16.1960  16.2914  18.5759  19.5688

          k = 0.3536 0.0707-0.0707 (   660 PWs)   bands (ev):

    -0.8116  12.6838  15.5091  16.2383  16.9355  20.2959

          k = 0.4243 0.1414-0.1414 (   674 PWs)   bands (ev):

     0.6894   9.2214  14.3917  15.2844  16.9459  22.8011

          k =-0.2121-0.4950 0.4950 (   670 PWs)   bands (ev):

     2.6931   6.1326  13.0079  15.5215  17.2742  24.8154

          k =-0.1414-0.4243 0.4243 (   672 PWs)   bands (ev):

     3.4702   5.1912  12.1192  16.2210  18.0681  23.9946

          k =-0.0707-0.3536 0.3536 (   671 PWs)   bands (ev):

     1.3040   8.0902  11.7697  17.3819  19.3317  23.5947

          k = 0.0000-0.2828 0.2828 (   660 PWs)   bands (ev):

    -0.3681  10.9363  12.4054  18.9949  21.0147  23.2376

          k = 0.4243 0.0000 0.0000 (   657 PWs)   bands (ev):

    -0.0154  13.7338  14.5430  14.6626  14.6626  18.1491

          k = 0.4950 0.0707-0.0707 (   672 PWs)   bands (ev):

     1.3004  11.3048  11.7357  14.2804  15.5868  19.1310

          k =-0.1414-0.5657 0.5657 (   674 PWs)   bands (ev):

     3.1153   8.2009  10.1333  14.3610  15.9481  21.9675

          k =-0.0707-0.4950 0.4950 (   675 PWs)   bands (ev):

     5.2838   5.5398   9.1003  14.9043  16.6254  25.3351

          k =-0.0000-0.4243 0.4243 (   678 PWs)   bands (ev):

     3.1279   7.6086   9.0902  15.9114  17.7621  26.6484

          k = 0.5657 0.0000 0.0000 (   672 PWs)   bands (ev):

     2.4237   9.4272  13.4795  13.7419  13.7419  17.2063

          k =-0.0707-0.6364 0.6364 (   672 PWs)   bands (ev):

     4.0181   7.7017  10.7106  13.6664  14.9050  18.5167

          k = 0.0000-0.5657 0.5657 (   678 PWs)   bands (ev):

     5.6167   6.9254   7.9487  14.0534  15.6066  21.6782

          k =-0.7071 0.0000 0.0000 (   692 PWs)   bands (ev):

     4.9541   6.2716  13.1234  13.4352  13.4352  16.8789

          k = 0.2828 0.1414 0.0000 (   668 PWs)   bands (ev):

    -1.4344  13.2640  14.5462  18.8602  19.8195  21.6093

          k = 0.3536 0.2121-0.0707 (   661 PWs)   bands (ev):

    -0.1030  10.0938  13.6878  16.8892  20.1370  23.1675

          k =-0.2828-0.4243 0.5657 (   662 PWs)   bands (ev):

     1.7402   6.8858  13.7163  15.3732  20.3294  22.0052

          k =-0.2121-0.3536 0.4950 (   676 PWs)   bands (ev):

     3.9620   4.1991  14.1081  14.4902  20.7585  21.1437

          k = 0.4243 0.1414-0.0000 (   670 PWs)   bands (ev):

     0.3374  11.6041  12.9185  14.1352  18.2514  20.3070

          k =-0.2121-0.4950 0.6364 (   668 PWs)   bands (ev):

     1.9986   8.7522  12.1357  12.6398  18.9401  22.4967

          k =-0.1414-0.4243 0.5657 (   673 PWs)   bands (ev):

     4.1431   5.8701  11.1029  12.8072  19.4808  24.0460

          k =-0.0707-0.3536 0.4950 (   675 PWs)   bands (ev):

     3.3839   6.7433  10.4338  13.6787  20.3998  23.3476

          k = 0.0000-0.2828 0.4243 (   673 PWs)   bands (ev):

     1.3907   9.2721  10.7605  15.0513  21.7062  22.4890

          k =-0.1414-0.5657 0.7071 (   668 PWs)   bands (ev):

     2.7700   9.7434  10.6052  12.0514  17.2783  19.4381

          k =-0.0707-0.4950 0.6364 (   677 PWs)   bands (ev):

     4.6981   7.9951   8.4872  11.7812  18.3063  21.9564

          k =-0.0000-0.4243 0.5657 (   676 PWs)   bands (ev):

     5.5026   6.6120   8.0611  12.4644  19.1752  25.3194

          k =-0.7071 0.1414 0.0000 (   670 PWs)   bands (ev):

     5.2853   6.6190  10.2718  11.7111  16.9516  19.1366

          k =-0.1414-0.4243 0.7071 (   668 PWs)   bands (ev):

     3.8037   8.2740   9.6731  10.9106  21.5733  22.9249

          k =-0.0707-0.3536 0.6364 (   676 PWs)   bands (ev):

     5.9406   6.1733   9.4713  10.1093  22.5384  22.9920

          k =-0.7071 0.2828 0.0000 (   674 PWs)   bands (ev):

     6.2800   7.6072   7.9413   9.5436  21.2568  22.8280

     the Fermi energy is     8.0060 ev

!    total energy              =      -4.63401619 Ry
     estimated scf accuracy    <          1.3E-11 Ry
     smearing contrib. (-TS)   =      -0.00047140 Ry
     internal energy E=F+TS    =      -4.63354479 Ry

     The total energy is F=E-TS. E is the sum of the following terms:
     one-electron contribution =       2.91563146 Ry
     hartree contribution      =       0.00701779 Ry
     xc contribution           =      -2.16329681 Ry
     ewald contribution        =      -5.39289723 Ry

     convergence has been achieved in   5 iterations

     Forces acting on atoms (cartesian axes, Ry/au):

     atom    1 type  1   force =     0.00000000    0.00000000    0.00000000

     Total force =     0.000000     Total SCF correction =     0.000000


     Computing stress (Cartesian axis) and pressure

          total   stress  (Ry/bohr**3)                   (kbar)     P=       -6.75
  -0.00004586  -0.00000000  -0.00000000           -6.75       -0.00       -0.00
  -0.00000000  -0.00004586  -0.00000000           -0.00       -6.75       -0.00
  -0.00000000  -0.00000000  -0.00004586           -0.00       -0.00       -6.75


     Writing all to output data dir ./tmp/kgrid_10.save/ :
     XML data file, charge density, pseudopotentials, collected wavefunctions

     init_run     :      0.10s CPU      0.11s WALL (       1 calls)
     electrons    :      0.74s CPU      1.05s WALL (       1 calls)
     forces       :      0.01s CPU      0.01s WALL (       1 calls)
     stress       :      0.03s CPU      0.03s WALL (       1 calls)

     Called by init_run:
     wfcinit      :      0.04s CPU      0.05s WALL (       1 calls)
     potinit      :      0.01s CPU      0.01s WALL (       1 calls)
     hinit0       :      0.05s CPU      0.05s WALL (       1 calls)

     Called by electrons:
     c_bands      :      0.64s CPU      0.90s WALL (       6 calls)
     sum_band     :      0.09s CPU      0.14s WALL (       6 calls)
     v_of_rho     :      0.01s CPU      0.01s WALL (       6 calls)
     mix_rho      :      0.00s CPU      0.00s WALL (       6 calls)

     Called by c_bands:
     init_us_2    :      0.02s CPU      0.02s WALL (     705 calls)
     cegterg      :      0.62s CPU      0.87s WALL (     282 calls)

     Called by *egterg:
     cdiaghg      :      0.03s CPU      0.04s WALL (    1167 calls)
     h_psi        :      0.55s CPU      0.77s WALL (    1261 calls)
     g_psi        :      0.00s CPU      0.00s WALL (     932 calls)

     Called by h_psi:
     h_psi:calbec :      0.03s CPU      0.03s WALL (    1261 calls)
     vloc_psi     :      0.51s CPU      0.72s WALL (    1261 calls)
                                        0.00s GPU  (    1261 calls)
     add_vuspsi   :      0.00s CPU      0.01s WALL (    1261 calls)

     General routines
     calbec       :      0.04s CPU      0.04s WALL (    2060 calls)
     fft          :      0.03s CPU      0.03s WALL (      85 calls)
     ffts         :      0.00s CPU      0.00s WALL (       6 calls)
     fftw         :      0.54s CPU      0.75s WALL (   11784 calls)

     Parallel routines

     PWSCF        :      0.93s CPU      1.25s WALL


   This run was terminated on:  19:40: 4   8Sep2026            

=------------------------------------------------------------------------------=
   JOB DONE.
=------------------------------------------------------------------------------=
