
     Program PWSCF v.7.5 starts on  8Sep2026 at 19:40:35 

     This program is part of the open-source Quantum ESPRESSO suite
     for quantum simulation of materials; please cite
         "P. Giannozzi et al., J. Phys.:Condens. Matter 21 395502 (2009);
         "P. Giannozzi et al., J. Phys.:Condens. Matter 29 465901 (2017);
         "P. Giannozzi et al., J. Chem. Phys. 152 154105 (2020);
          URL http://www.quantum-espresso.org", 
     in publications or presentations arising from this work. More details at
     http://www.quantum-espresso.org/quote

     Parallel version (MPI & OpenMP), running on       8 processor cores
     Number of MPI processes:                 4
     Threads/MPI process:                     2

     MPI processes distributed on     1 nodes
     3089 MiB available memory on the printing compute node when the environment starts

     Reading input from espresso.pwi
Warning: card &CELL ignored
Warning: card &FCP ignored
Warning: card &RISM ignored

     Current dimensions of program PWSCF are:
     Max number of different atomic species (ntypx) = 10
     Max number of k-points (npk) =  40000
     Max angular momentum in pseudopotentials (lmaxx) =  4
     Message from routine setup:
     using ibrav=0 with symmetry is DISCOURAGED, use correct ibrav instead

     R & G space division:  proc/nbgrp/npool/nimage =       4
     Subspace diagonalization in iterative solution of the eigenvalue problem:
     a serial algorithm will be used


     Parallelization info
     --------------------
     sticks:   dense  smooth     PW     G-vecs:    dense   smooth      PW
     Min         148     148     44                18002    18002    2885
     Max         149     149     49                18019    18019    2886
     Sum         595     595    187                72043    72043   11541

     Using Slab Decomposition



     bravais-lattice index     =            0
     lattice parameter (alat)  =       4.6607  a.u.
     unit-cell volume          =     533.2340 (a.u.)^3
     number of atoms/cell      =            2
     number of atomic types    =            1
     number of electrons       =         8.00
     number of Kohn-Sham states=           12
     kinetic-energy cutoff     =     100.0000  Ry
     charge density cutoff     =     400.0000  Ry
     scf convergence threshold =      1.0E-10
     mixing beta               =       0.7000
     number of iterations used =            8  plain     mixing
     Exchange-correlation= PBE
                           (   1   4   3   4   0   0   0)

     celldm(1)=   4.660672  celldm(2)=   0.000000  celldm(3)=   0.000000
     celldm(4)=   0.000000  celldm(5)=   0.000000  celldm(6)=   0.000000

     crystal axes: (cart. coord. in units of alat)
               a(1) = (   1.000000   0.000000   0.000000 )  
               a(2) = (  -0.500000   0.866025   0.000000 )  
               a(3) = (   0.000000   0.000000   6.081932 )  

     reciprocal axes: (cart. coord. in units 2 pi/alat)
               b(1) = (  1.000000  0.577350 -0.000000 )  
               b(2) = (  0.000000  1.154701  0.000000 )  
               b(3) = (  0.000000 -0.000000  0.164421 )  


     PseudoPot. # 1 for C  read from file:
     /home/danil/home/Molecular-and-Materials-Modeling-2026-Challenges/pseudopotentials/C.upf
     MD5 check sum: 34a24e64c0a39f27c6c36b90a16ac686
     Pseudo is Norm-conserving + core correction, Zval =  4.0
     Generated using ONCVPSP code by D. R. Hamann
     Using radial grid of 1248 points,  4 beta functions with: 
                l(1) =   0
                l(2) =   0
                l(3) =   1
                l(4) =   1

     atomic species   valence    mass     pseudopotential
     C                 4.00    12.01100     C ( 1.00)

     24 Sym. Ops., with inversion, found (12 have fractional translation)



   Cartesian axes

     site n.     atom                  positions (alat units)
         1        C      tau(   1) = (   0.0000000   0.0000000   3.0409662  )
         2        C      tau(   2) = (   0.0000000   0.5773503   3.0409662  )

     number of k points=    37  Gaussian smearing, width (Ry)=  0.0100
                       cart. coord. in units 2pi/alat
        k(    1) = (   0.0000000   0.0000000   0.0000000), wk =   0.0061728
        k(    2) = (   0.0000000   0.0641500   0.0000000), wk =   0.0370370
        k(    3) = (   0.0000000   0.1283001   0.0000000), wk =   0.0370370
        k(    4) = (   0.0000000   0.1924501   0.0000000), wk =   0.0370370
        k(    5) = (   0.0000000   0.2566001   0.0000000), wk =   0.0370370
        k(    6) = (   0.0000000   0.3207501   0.0000000), wk =   0.0370370
        k(    7) = (   0.0000000   0.3849002   0.0000000), wk =   0.0370370
        k(    8) = (   0.0000000   0.4490502   0.0000000), wk =   0.0370370
        k(    9) = (   0.0000000   0.5132002   0.0000000), wk =   0.0370370
        k(   10) = (   0.0000000  -0.5773503   0.0000000), wk =   0.0185185
        k(   11) = (   0.0555556   0.0962250   0.0000000), wk =   0.0370370
        k(   12) = (   0.0555556   0.1603751   0.0000000), wk =   0.0740741
        k(   13) = (   0.0555556   0.2245251   0.0000000), wk =   0.0740741
        k(   14) = (   0.0555556   0.2886751   0.0000000), wk =   0.0740741
        k(   15) = (   0.0555556   0.3528252   0.0000000), wk =   0.0740741
        k(   16) = (   0.0555556   0.4169752   0.0000000), wk =   0.0740741
        k(   17) = (   0.0555556   0.4811252   0.0000000), wk =   0.0740741
        k(   18) = (   0.0555556   0.5452753   0.0000000), wk =   0.0740741
        k(   19) = (   0.1111111   0.1924501   0.0000000), wk =   0.0370370
        k(   20) = (   0.1111111   0.2566001   0.0000000), wk =   0.0740741
        k(   21) = (   0.1111111   0.3207501   0.0000000), wk =   0.0740741
        k(   22) = (   0.1111111   0.3849002   0.0000000), wk =   0.0740741
        k(   23) = (   0.1111111   0.4490502   0.0000000), wk =   0.0740741
        k(   24) = (   0.1111111   0.5132002   0.0000000), wk =   0.0740741
        k(   25) = (   0.1111111   0.5773503   0.0000000), wk =   0.0370370
        k(   26) = (   0.1666667   0.2886751   0.0000000), wk =   0.0370370
        k(   27) = (   0.1666667   0.3528252   0.0000000), wk =   0.0740741
        k(   28) = (   0.1666667   0.4169752   0.0000000), wk =   0.0740741
        k(   29) = (   0.1666667   0.4811252   0.0000000), wk =   0.0740741
        k(   30) = (   0.1666667   0.5452753   0.0000000), wk =   0.0740741
        k(   31) = (   0.2222222   0.3849002   0.0000000), wk =   0.0370370
        k(   32) = (   0.2222222   0.4490502   0.0000000), wk =   0.0740741
        k(   33) = (   0.2222222   0.5132002   0.0000000), wk =   0.0740741
        k(   34) = (   0.2222222   0.5773503   0.0000000), wk =   0.0370370
        k(   35) = (   0.2777778   0.4811252   0.0000000), wk =   0.0370370
        k(   36) = (   0.2777778   0.5452753   0.0000000), wk =   0.0740741
        k(   37) = (   0.3333333   0.5773503   0.0000000), wk =   0.0123457

     Dense  grid:    72043 G-vectors     FFT dimensions: (  30,  30, 192)

     Estimated max dynamical RAM per process >      28.80 MB

     Estimated total dynamical RAM >     115.20 MB
 ----2D----2D----2D----2D----2D----2D----2D----2D----2D----2D----2D----2D
  The code is running with the 2D cutoff
  Please refer to:
  Sohier, T., Calandra, M., & Mauri, F. (2017), 
  Density functional perturbation theory for gated two-dimensional heterostructures:
  Theoretical developments and application to flexural phonons in graphene.
  Physical Review B, 96(7), 75448. https://doi.org/10.1103/PhysRevB.96.075448
 ----2D----2D----2D----2D----2D----2D----2D----2D----2D----2D----2D----2D

     Initial potential from superposition of free atoms

     starting charge       7.9999, renormalised to       8.0000

     negative rho (up, down):  1.322E-06 0.000E+00
     Starting wfcs are    8 randomized atomic wfcs +    4 random wfcs

     total cpu time spent up to now is        0.7 secs

     per-process dynamical memory:    37.6 Mb

     Self-consistent Calculation

     iteration #  1     ecut=   100.00 Ry     beta= 0.70
     Davidson diagonalization with overlap
     ethr =  1.00E-02,  avg # of iterations =  8.1

     total cpu time spent up to now is        2.3 secs

     total energy              =     -24.06506431 Ry
     estimated scf accuracy    <       0.19857075 Ry

     iteration #  2     ecut=   100.00 Ry     beta= 0.70
     Davidson diagonalization with overlap
     ethr =  2.48E-03,  avg # of iterations =  4.5

     total cpu time spent up to now is        3.2 secs

     total energy              =     -24.09544094 Ry
     estimated scf accuracy    <       0.00226686 Ry

     iteration #  3     ecut=   100.00 Ry     beta= 0.70
     Davidson diagonalization with overlap
     ethr =  2.83E-05,  avg # of iterations =  7.4

     total cpu time spent up to now is        4.5 secs

     total energy              =     -24.09574189 Ry
     estimated scf accuracy    <       0.00016944 Ry

     iteration #  4     ecut=   100.00 Ry     beta= 0.70
     Davidson diagonalization with overlap
     ethr =  2.12E-06,  avg # of iterations =  3.8

     total cpu time spent up to now is        5.3 secs

     total energy              =     -24.09574983 Ry
     estimated scf accuracy    <       0.00000070 Ry

     iteration #  5     ecut=   100.00 Ry     beta= 0.70
     Davidson diagonalization with overlap
     ethr =  8.79E-09,  avg # of iterations =  2.8

     total cpu time spent up to now is        6.2 secs

     total energy              =     -24.09575048 Ry
     estimated scf accuracy    <       0.00000002 Ry

     iteration #  6     ecut=   100.00 Ry     beta= 0.70
     Davidson diagonalization with overlap
     ethr =  3.02E-10,  avg # of iterations =  2.5

     total cpu time spent up to now is        7.1 secs

     total energy              =     -24.09575049 Ry
     estimated scf accuracy    <          6.8E-10 Ry

     iteration #  7     ecut=   100.00 Ry     beta= 0.70
     Davidson diagonalization with overlap
     ethr =  8.50E-12,  avg # of iterations =  2.7

     total cpu time spent up to now is        7.8 secs

     End of self-consistent calculation

          k = 0.0000 0.0000 0.0000 (  9073 PWs)   bands (ev):

   -23.7786 -11.8677  -7.3016  -7.3016  -0.9488  -0.0453   1.7544   2.6639
     4.1434   4.1434   5.2606   7.1532

          k = 0.0000 0.0642 0.0000 (  9067 PWs)   bands (ev):

   -23.7058 -11.7804  -7.5996  -7.4584  -0.8500   0.0544   1.8537   2.7628
     4.1805   4.4590   5.3628   6.9016

          k = 0.0000 0.1283 0.0000 (  9041 PWs)   bands (ev):

   -23.4877 -11.5195  -8.4179  -7.8751  -0.5535   0.3534   2.1519   3.0588
     4.2182   5.3478   5.6656   6.1859

          k = 0.0000 0.1925 0.0000 (  9049 PWs)   bands (ev):

   -23.1253 -11.0882  -9.5932  -8.4362  -0.0596   0.8503   2.6480   3.5490
     4.1556   5.1023   6.1619   6.6814

          k = 0.0000 0.2566 0.0000 (  9029 PWs)   bands (ev):

   -22.6206 -10.9686 -10.4930  -9.0330   0.6312   1.5405   3.3336   3.7279
     3.9974   4.2699   6.8507   8.3254

          k = 0.0000 0.3208 0.0000 (  9025 PWs)   bands (ev):

   -21.9766 -12.4297  -9.7456  -9.5890   1.5167   2.1262   2.5541   3.7286
     4.2803   5.1330   7.7327   9.2491

          k = 0.0000 0.3849 0.0000 (  9017 PWs)   bands (ev):

   -21.1982 -13.8990 -10.0564  -8.8692   0.6726   2.5896   3.5404   3.5509
     5.3557   6.2006   8.8057  10.1910

          k = 0.0000 0.4491 0.0000 (  8985 PWs)   bands (ev):

   -20.2949 -15.3219 -10.4063  -7.9159  -0.7981   3.3266   3.9043   4.8229
     6.6421   7.4448  10.0590  10.4667

          k = 0.0000 0.5132 0.0000 (  8988 PWs)   bands (ev):

   -19.2969 -16.6412 -10.6219  -7.0291  -2.0145   3.2347   5.3410   6.2770
     8.1187   8.7255   8.8051   9.6958

          k = 0.0000-0.5774 0.0000 (  8964 PWs)   bands (ev):

   -18.5413 -17.5053 -10.6947  -6.6053  -2.5511   3.1984   6.8910   7.0408
     7.7677   8.0183   9.7551   9.8051

          k = 0.0556 0.0962 0.0000 (  9051 PWs)   bands (ev):

   -23.5603 -11.6063  -8.1310  -7.7721  -0.6523   0.2538   2.0526   2.9603
     4.2920   4.9746   5.5659   6.4197

          k = 0.0556 0.1604 0.0000 (  9048 PWs)   bands (ev):

   -23.2701 -11.2601  -9.0753  -8.3144  -0.2570   0.6519   2.4503   3.3541
     4.4063   5.5274   5.8862   5.9699

          k = 0.0556 0.2245 0.0000 (  9035 PWs)   bands (ev):

   -22.8366 -10.7466 -10.3087  -8.9364   0.3356   1.2467   3.0453   3.9298
     4.3424   4.3611   6.5555   7.1789

          k = 0.0556 0.2887 0.0000 (  9024 PWs)   bands (ev):

   -22.2622 -11.7006 -10.0742  -9.5398   1.1244   2.0211   2.9340   3.8152
     4.2175   4.7372   7.3405   8.7029

          k = 0.0556 0.3528 0.0000 (  9024 PWs)   bands (ev):

   -21.5509 -13.1505 -10.0670  -9.2592   1.3833   2.1064   3.0564   3.9527
     4.8658   5.7081   8.3176   9.7439

          k = 0.0556 0.4170 0.0000 (  9003 PWs)   bands (ev):

   -20.7093 -14.5887 -10.4840  -8.3352  -0.1124   3.2637   3.7861   4.2277
     6.0487   6.8594   9.4817  10.9034

          k = 0.0556 0.4811 0.0000 (  8987 PWs)   bands (ev):

   -19.7532 -15.9606 -10.7710  -7.3855  -1.4771   3.6029   4.6683   5.5877
     7.4308   8.1597   9.6380  10.4207

          k = 0.0556 0.5453 0.0000 (  8969 PWs)   bands (ev):

   -18.7638 -17.1630 -10.9170  -6.6560  -2.4231   3.5343   6.1999   7.1030
     7.8950   8.7313   9.0011   9.6770

          k = 0.1111 0.1925 0.0000 (  9037 PWs)   bands (ev):

   -22.9087 -10.8314  -9.9765  -9.0202   0.2373   1.1483   2.9483   3.8446
     4.5368   4.8312   6.3774   6.4642

          k = 0.1111 0.2566 0.0000 (  9036 PWs)   bands (ev):

   -22.4055 -11.1138 -10.2397  -9.7627   0.9283   1.8392   3.3115   3.6438
     4.5289   5.0387   7.1275   7.2503

          k = 0.1111 0.3208 0.0000 (  9024 PWs)   bands (ev):

   -21.7638 -12.4269 -10.4057  -9.4965   1.8146   1.9177   2.7448   4.5186
     4.9732   5.3997   8.0160   8.5025

          k = 0.1111 0.3849 0.0000 (  8989 PWs)   bands (ev):

   -20.9888 -13.8116 -10.9172  -8.6238   0.4850   2.8925   3.8150   4.7495
     5.6592   6.4457   9.0843   9.8032

          k = 0.1111 0.4491 0.0000 (  8995 PWs)   bands (ev):

   -20.0907 -15.1851 -11.2884  -7.6711  -0.9150   4.1425   4.6104   5.0705
     6.9371   7.6313  10.1601  10.4120

          k = 0.1111 0.5132 0.0000 (  8981 PWs)   bands (ev):

   -19.1005 -16.4745 -11.5136  -6.7752  -2.0973   4.4649   5.6256   6.4726
     8.4040   8.7429   8.9168   9.8260

          k = 0.1111 0.5774 0.0000 (  8986 PWs)   bands (ev):

   -18.3542 -17.3228 -11.5891  -6.3386  -2.6323   4.4305   7.1441   7.3121
     7.6789   8.3186   9.9636  10.0108

          k = 0.1667 0.2887 0.0000 (  9021 PWs)   bands (ev):

   -21.8350 -12.0343 -10.6835  -9.5761   1.7170   2.1339   2.6257   4.4403
     5.2931   5.8494   7.3306   7.9396

          k = 0.1667 0.3528 0.0000 (  9013 PWs)   bands (ev):

   -21.1294 -13.1457 -11.4479  -8.7707   0.8514   2.6990   3.5981   5.4246
     6.1135   6.2277   8.1673   8.9185

          k = 0.1667 0.4170 0.0000 (  9001 PWs)   bands (ev):

   -20.2965 -14.3992 -11.9819  -7.8536  -0.4681   3.8696   4.7419   5.9632
     6.6514   7.2804   9.3265  10.0157

          k = 0.1667 0.4811 0.0000 (  8988 PWs)   bands (ev):

   -19.3534 -15.6732 -12.3196  -6.8975  -1.7171   5.2126   5.8487   6.0079
     8.0126   8.2426   9.6239   9.9527

          k = 0.1667 0.5453 0.0000 (  8967 PWs)   bands (ev):

   -18.3829 -16.8218 -12.4846  -6.1348  -2.6344   5.7467   6.7464   7.1595
     8.3505   8.6528   9.5577  10.0470

          k = 0.2222 0.3849 0.0000 (  9023 PWs)   bands (ev):

   -20.3656 -13.9456 -12.4160  -7.9161  -0.2932   3.7732   4.6269   6.5122
     7.1542   7.2893   8.0745   9.8369

          k = 0.2222 0.4491 0.0000 (  8993 PWs)   bands (ev):

   -19.4845 -14.9449 -13.0747  -6.9712  -1.4587   5.0283   5.7492   7.3852
     7.8378   7.9273   8.9761   9.7785

          k = 0.2222 0.5132 0.0000 (  8959 PWs)   bands (ev):

   -18.5194 -16.0561 -13.4161  -6.0429  -2.5271   6.4377   6.6621   7.2979
     8.4482   9.1254   9.3430  10.5203

          k = 0.2222 0.5774 0.0000 (  8964 PWs)   bands (ev):

   -17.7940 -16.8425 -13.5209  -5.5442  -3.0741   6.9247   7.2211   7.8486
     8.1055   9.2185  10.1276  10.6797

          k = 0.2778 0.4811 0.0000 (  8951 PWs)   bands (ev):

   -18.5739 -15.5737 -13.9525  -6.0199  -2.4656   6.3463   6.4671   8.3291
     8.6779   8.7015   9.2320  10.5495

          k = 0.2778 0.5453 0.0000 (  8947 PWs)   bands (ev):

   -17.6412 -16.3861 -14.3831  -5.1439  -3.3644   6.5571   7.7398   8.5426
     9.0256   9.4110  10.6009  11.0931

          k = 0.3333 0.5774 0.0000 (  8946 PWs)   bands (ev):

   -16.8641 -16.8641 -14.8268  -4.2404  -4.2404   6.4179   8.6578   8.6578
     9.2628  10.7133  10.7133  11.2960

     the Fermi energy is    -4.2404 ev

!    total energy              =     -24.09575049 Ry
     estimated scf accuracy    <          1.5E-11 Ry
     smearing contrib. (-TS)   =      -0.00006965 Ry
     internal energy E=F+TS    =     -24.09568084 Ry

     The total energy is F=E-TS. E is the sum of the following terms:
     one-electron contribution =    -256.46925688 Ry
     hartree contribution      =     128.98731894 Ry
     xc contribution           =      -8.57814705 Ry
     ewald contribution        =     111.96440415 Ry

     convergence has been achieved in   7 iterations

     Forces acting on atoms (cartesian axes, Ry/au):

     atom    1 type  1   force =     0.00000000   -0.00000000    0.00000000
     atom    2 type  1   force =     0.00000000    0.00000000    0.00000000

     Total force =     0.000000     Total SCF correction =     0.000000


     Computing stress (Cartesian axis) and pressure

          total   stress  (Ry/bohr**3)                   (kbar)     P=        0.10
   0.00000102   0.00000000   0.00000000            0.15        0.00        0.00
   0.00000000   0.00000102   0.00000000            0.00        0.15        0.00
  -0.00000000   0.00000000  -0.00000004           -0.00        0.00       -0.01


     Writing all to output data dir ./tmp/k18.save/ :
     XML data file, charge density, pseudopotentials, collected wavefunctions

     init_run     :      0.92s CPU      0.66s WALL (       1 calls)
     electrons    :     12.87s CPU      7.17s WALL (       1 calls)
     forces       :      0.09s CPU      0.05s WALL (       1 calls)
     stress       :      0.35s CPU      0.18s WALL (       1 calls)

     Called by init_run:
     wfcinit      :      0.58s CPU      0.31s WALL (       1 calls)
     potinit      :      0.02s CPU      0.02s WALL (       1 calls)
     hinit0       :      0.20s CPU      0.20s WALL (       1 calls)

     Called by electrons:
     c_bands      :     11.35s CPU      6.12s WALL (       7 calls)
     sum_band     :      1.45s CPU      0.97s WALL (       7 calls)
     v_of_rho     :      0.07s CPU      0.07s WALL (       8 calls)
     mix_rho      :      0.01s CPU      0.01s WALL (       7 calls)

     Called by c_bands:
     init_us_2    :      0.20s CPU      0.12s WALL (     629 calls)
     cegterg      :     11.06s CPU      5.97s WALL (     259 calls)

     Called by *egterg:
     cdiaghg      :      0.27s CPU      0.14s WALL (    1435 calls)
     h_psi        :     10.34s CPU      5.59s WALL (    1472 calls)
     g_psi        :      0.09s CPU      0.04s WALL (    1176 calls)

     Called by h_psi:
     h_psi:calbec :      0.23s CPU      0.12s WALL (    1472 calls)
     vloc_psi     :      9.93s CPU      5.38s WALL (    1472 calls)
                                        0.00s GPU  (    1472 calls)
     add_vuspsi   :      0.12s CPU      0.07s WALL (    1472 calls)

     General routines
     calbec       :      0.35s CPU      0.18s WALL (    2101 calls)
     fft          :      0.25s CPU      0.24s WALL (     104 calls)
     ffts         :      0.00s CPU      0.00s WALL (       7 calls)
     fftw         :     10.34s CPU      5.69s WALL (   22456 calls)

     Parallel routines

     PWSCF        :     14.31s CPU      8.13s WALL


   This run was terminated on:  19:40:44   8Sep2026            

=------------------------------------------------------------------------------=
   JOB DONE.
=------------------------------------------------------------------------------=
