C  H 
 1.0000000000000000
     4.9326481819000003    0.0000000000000000    0.0000000000000000
    -2.4663246598000002    4.2717983050999999    0.0000000000000000
     0.0000000000000000    0.0000000000000000   15.0000000000000000
 C   H  
   8   1
Cartesian
 -0.0159208127604552  0.0091918639962565  7.3775166426360652
 -1.2331623300000001  2.1175153555121136  7.3775166426360652
  2.4822449037604573  0.0091918781932839  7.3775166426360652
  1.2331617610000001  2.1358991530000000  7.8382033817063581
 -0.0323782108455741  1.4052392365239270  7.4195065693404851
 -1.2331625190000000  3.5598318359999999  7.5308784160199105
  2.4987017748455727  1.4052392413072412  7.4195065693404851
  1.2331614240000000  3.5972187601399161  7.4195065693404851
  1.2331617610000001  2.1358991530000000  8.9398485214759749
