5
Lattice="12.0 0.0 0.0 0.0 12.0 0.0 0.0 0.0 12.0" Properties=species:S:1:pos:R:3:forces:R:3 energy=-315.7017476303349 free_energy=-315.7017476303349 stress="3.764446222317752e-05 -9.181576151994517e-07 -9.181576151994517e-07 -9.181576151994517e-07 3.764446222317752e-05 9.181576151994517e-07 -9.181576151994517e-07 9.181576151994517e-07 3.764446222317752e-05" pbc="F F F"
C        5.99998730       6.00002032       6.00000823       0.00622336      -0.00462670      -0.00328484
H        6.63260383       6.63258670       6.63258953       0.00121999       0.00231811       0.00210908
H        5.36740688       5.36739484       6.63259983      -0.00304239      -0.00010362       0.00195327
H        6.63259501       5.36740408       5.36740330      -0.00119556      -0.00014475       0.00021392
H        5.36740698       6.63259404       5.36739912      -0.00320514       0.00255696      -0.00099193
