
     Program PWSCF v.7.5 starts on  3Sep2026 at 14:10: 5 

     This program is part of the open-source Quantum ESPRESSO suite
     for quantum simulation of materials; please cite
         "P. Giannozzi et al., J. Phys.:Condens. Matter 21 395502 (2009);
         "P. Giannozzi et al., J. Phys.:Condens. Matter 29 465901 (2017);
         "P. Giannozzi et al., J. Chem. Phys. 152 154105 (2020);
          URL http://www.quantum-espresso.org", 
     in publications or presentations arising from this work. More details at
     http://www.quantum-espresso.org/quote

     Parallel version (MPI & OpenMP), running on       4 processor cores
     Number of MPI processes:                 4
     Threads/MPI process:                     1

     MPI processes distributed on     1 nodes
     2579 MiB available memory on the printing compute node when the environment starts

     Reading input from espresso.pwi
Warning: card &CELL ignored
Warning: card &FCP ignored
Warning: card &RISM ignored

     Current dimensions of program PWSCF are:
     Max number of different atomic species (ntypx) = 10
     Max number of k-points (npk) =  40000
     Max angular momentum in pseudopotentials (lmaxx) =  4
     file C.pbe-n-kjpaw_psl.0.1.UPF: wavefunction(s)  2P renormalized

     R & G space division:  proc/nbgrp/npool/nimage =       4
     Subspace diagonalization in iterative solution of the eigenvalue problem:
     a serial algorithm will be used


     Parallelization info
     --------------------
     sticks:   dense  smooth     PW     G-vecs:    dense   smooth      PW
     Min        1880    1880    471               122858   122858   15361
     Max        1881    1881    472               122859   122859   15362
     Sum        7521    7521   1885               491433   491433   61445

     Using Slab Decomposition



     bravais-lattice index     =            0
     lattice parameter (alat)  =      22.6767  a.u.
     unit-cell volume          =   11661.1220 (a.u.)^3
     number of atoms/cell      =            5
     number of atomic types    =            2
     number of electrons       =         8.00
     number of Kohn-Sham states=            8
     kinetic-energy cutoff     =      46.0000  Ry
     charge density cutoff     =     184.0000  Ry
     scf convergence threshold =      1.0E-08
     mixing beta               =       0.7000
     number of iterations used =            8  plain     mixing
     Exchange-correlation= SLA  PW   PBX  PBC
                           (   1   4   3   4   0   0   0)

     celldm(1)=  22.676713  celldm(2)=   0.000000  celldm(3)=   0.000000
     celldm(4)=   0.000000  celldm(5)=   0.000000  celldm(6)=   0.000000

     crystal axes: (cart. coord. in units of alat)
               a(1) = (   1.000000   0.000000   0.000000 )  
               a(2) = (   0.000000   1.000000   0.000000 )  
               a(3) = (   0.000000   0.000000   1.000000 )  

     reciprocal axes: (cart. coord. in units 2 pi/alat)
               b(1) = (  1.000000  0.000000  0.000000 )  
               b(2) = (  0.000000  1.000000  0.000000 )  
               b(3) = (  0.000000  0.000000  1.000000 )  


     PseudoPot. # 1 for C  read from file:
     /usr/share/espresso/pseudo/C.pbe-n-kjpaw_psl.0.1.UPF
     MD5 check sum: 0cb641972fb3ec3bdffe56284d45d2bb
     Pseudo is Projector augmented-wave + core cor, Zval =  4.0
     Generated using &quot;atomic&quot; code by A. Dal Corso  v.5.0.2 svn rev. 9415
     Shape of augmentation charge: BESSEL
     Using radial grid of 1073 points,  4 beta functions with: 
                l(1) =   0
                l(2) =   0
                l(3) =   1
                l(4) =   1
     Q(r) pseudized with 0 coefficients 


     PseudoPot. # 2 for H  read from file:
     /usr/share/espresso/pseudo/H.pbe-kjpaw.UPF
     MD5 check sum: a225a3f3a1be5237eb8f6a7e61cbb4ee
     Pseudo is Projector augmented-wave, Zval =  1.0
     Generated using "atomic" code by A. Dal Corso (espresso distribution)
     Shape of augmentation charge: PSQ
     Using radial grid of  929 points,  2 beta functions with: 
                l(1) =   0
                l(2) =   0
     Q(r) pseudized with 0 coefficients 


     atomic species   valence    mass     pseudopotential
     C                 4.00    12.01100     C ( 1.00)
     H                 1.00     1.00800     H ( 1.00)

     No symmetry found



   Cartesian axes

     site n.     atom                  positions (alat units)
         1        C      tau(   1) = (   0.4999989   0.5000017   0.5000007  )
         2        H      tau(   2) = (   0.5527170   0.5527156   0.5527158  )
         3        H      tau(   3) = (   0.4472839   0.4472829   0.5527167  )
         4        H      tau(   4) = (   0.5527163   0.4472837   0.4472836  )
         5        H      tau(   5) = (   0.4472839   0.5527162   0.4472833  )

     number of k points=     1  Gaussian smearing, width (Ry)=  0.0200
                       cart. coord. in units 2pi/alat
        k(    1) = (   0.0000000   0.0000000   0.0000000), wk =   2.0000000

     Dense  grid:   491433 G-vectors     FFT dimensions: ( 100, 100, 100)

     Estimated max dynamical RAM per process >     178.55 MB

     Estimated total dynamical RAM >     714.18 MB

     Check: negative core charge=   -0.000001

     Initial potential from superposition of free atoms

     starting charge       7.9999, renormalised to       8.0000

     negative rho (up, down):  9.968E-04 0.000E+00
     Starting wfcs are    8 randomized atomic wfcs
     Checking if some PAW data can be deallocated... 

     total cpu time spent up to now is        0.5 secs

     per-process dynamical memory:    70.5 Mb

     Self-consistent Calculation

     iteration #  1     ecut=    46.00 Ry     beta= 0.70
     Davidson diagonalization with overlap
     ethr =  1.00E-02,  avg # of iterations =  3.0

     negative rho (up, down):  4.153E-04 0.000E+00

     total cpu time spent up to now is        0.9 secs

     total energy              =     -23.03009173 Ry
     estimated scf accuracy    <       0.56141849 Ry

     iteration #  2     ecut=    46.00 Ry     beta= 0.70
     Davidson diagonalization with overlap
     ethr =  7.02E-03,  avg # of iterations =  2.0

     negative rho (up, down):  4.074E-04 0.000E+00

     total cpu time spent up to now is        1.2 secs

     total energy              =     -23.16156402 Ry
     estimated scf accuracy    <       0.17780014 Ry

     iteration #  3     ecut=    46.00 Ry     beta= 0.70
     Davidson diagonalization with overlap
     ethr =  2.22E-03,  avg # of iterations =  2.0

     negative rho (up, down):  7.085E-04 0.000E+00

     total cpu time spent up to now is        1.6 secs

     total energy              =     -23.20274510 Ry
     estimated scf accuracy    <       0.00480387 Ry

     iteration #  4     ecut=    46.00 Ry     beta= 0.70
     Davidson diagonalization with overlap
     ethr =  6.00E-05,  avg # of iterations = 16.0

     negative rho (up, down):  6.583E-04 0.000E+00

     total cpu time spent up to now is        2.1 secs

     total energy              =     -23.20355229 Ry
     estimated scf accuracy    <       0.00016582 Ry

     iteration #  5     ecut=    46.00 Ry     beta= 0.70
     Davidson diagonalization with overlap
     c_bands:  1 eigenvalues not converged
     ethr =  2.07E-06,  avg # of iterations = 20.0

     negative rho (up, down):  6.669E-04 0.000E+00

     total cpu time spent up to now is        2.7 secs

     total energy              =     -23.20364857 Ry
     estimated scf accuracy    <       0.00001280 Ry

     iteration #  6     ecut=    46.00 Ry     beta= 0.70
     Davidson diagonalization with overlap
     ethr =  1.60E-07,  avg # of iterations = 12.0

     negative rho (up, down):  6.843E-04 0.000E+00

     total cpu time spent up to now is        3.2 secs

     total energy              =     -23.20365175 Ry
     estimated scf accuracy    <       0.00000443 Ry

     iteration #  7     ecut=    46.00 Ry     beta= 0.70
     Davidson diagonalization with overlap
     ethr =  5.54E-08,  avg # of iterations =  2.0

     negative rho (up, down):  6.915E-04 0.000E+00

     total cpu time spent up to now is        3.5 secs

     total energy              =     -23.20365217 Ry
     estimated scf accuracy    <       0.00000025 Ry

     iteration #  8     ecut=    46.00 Ry     beta= 0.70
     Davidson diagonalization with overlap
     ethr =  3.14E-09,  avg # of iterations =  5.0

     negative rho (up, down):  6.917E-04 0.000E+00

     total cpu time spent up to now is        3.9 secs

     total energy              =     -23.20365270 Ry
     estimated scf accuracy    <       0.00000055 Ry

     iteration #  9     ecut=    46.00 Ry     beta= 0.70
     Davidson diagonalization with overlap
     ethr =  3.14E-09,  avg # of iterations =  1.0

     negative rho (up, down):  6.919E-04 0.000E+00

     total cpu time spent up to now is        4.3 secs

     total energy              =     -23.20365242 Ry
     estimated scf accuracy    <       0.00000043 Ry

     iteration # 10     ecut=    46.00 Ry     beta= 0.70
     Davidson diagonalization with overlap
     ethr =  3.14E-09,  avg # of iterations =  2.0

     negative rho (up, down):  6.919E-04 0.000E+00

     total cpu time spent up to now is        4.6 secs

     End of self-consistent calculation

          k = 0.0000 0.0000 0.0000 ( 61445 PWs)   bands (ev):

   -16.9247  -9.3297  -9.3294  -9.3286  -0.6504   0.2728   0.4766   0.4767

     the Fermi energy is    -2.5131 ev

!    total energy              =     -23.20365250 Ry
     total all-electron energy =       -80.967754 Ry
     estimated scf accuracy    <          5.6E-09 Ry
     smearing contrib. (-TS)   =      -0.00000000 Ry
     internal energy E=F+TS    =     -23.20365250 Ry

     The total energy is F=E-TS. E is the sum of the following terms:
     one-electron contribution =     -43.07249022 Ry
     hartree contribution      =      22.46155804 Ry
     xc contribution           =      -6.98693568 Ry
     ewald contribution        =      11.04508491 Ry
     one-center paw contrib.   =      -6.65086955 Ry

     convergence has been achieved in  10 iterations

     negative rho (up, down):  6.919E-04 0.000E+00

     Forces acting on atoms (cartesian axes, Ry/au):

     atom    1 type  1   force =     0.00024205   -0.00017995   -0.00012776
     atom    2 type  2   force =     0.00004745    0.00009016    0.00008203
     atom    3 type  2   force =    -0.00011833   -0.00000403    0.00007597
     atom    4 type  2   force =    -0.00004650   -0.00000563    0.00000832
     atom    5 type  2   force =    -0.00012466    0.00009945   -0.00003858

     Total force =     0.000416     Total SCF correction =     0.000102
     SCF correction compared to forces is large: reduce conv_thr to get better values


     Computing stress (Cartesian axis) and pressure


     negative rho (up, down):  6.919E-04 0.000E+00
          total   stress  (Ry/bohr**3)                   (kbar)     P=       -0.06
  -0.00000041   0.00000001   0.00000001           -0.06        0.00        0.00
   0.00000001  -0.00000041  -0.00000001            0.00       -0.06       -0.00
   0.00000001  -0.00000001  -0.00000041            0.00       -0.00       -0.06


     Writing all to output data dir ./tmp/ch4_pbe.save/ :
     XML data file, charge density, pseudopotentials, collected wavefunctions

     init_run     :      0.42s CPU      0.48s WALL (       1 calls)
     electrons    :      3.56s CPU      4.08s WALL (       1 calls)
     forces       :      0.17s CPU      0.21s WALL (       1 calls)
     stress       :      0.47s CPU      0.53s WALL (       1 calls)

     Called by init_run:
     wfcinit      :      0.03s CPU      0.03s WALL (       1 calls)
     potinit      :      0.09s CPU      0.11s WALL (       1 calls)
     hinit0       :      0.21s CPU      0.22s WALL (       1 calls)

     Called by electrons:
     c_bands      :      1.11s CPU      1.14s WALL (      10 calls)
     sum_band     :      0.80s CPU      1.03s WALL (      10 calls)
     v_of_rho     :      0.81s CPU      0.85s WALL (      11 calls)
     newd         :      0.46s CPU      0.68s WALL (      11 calls)
     PAW_pot      :      0.17s CPU      0.17s WALL (      11 calls)
     mix_rho      :      0.29s CPU      0.30s WALL (      10 calls)

     Called by c_bands:
     init_us_2    :      0.05s CPU      0.05s WALL (      22 calls)
     cegterg      :      1.07s CPU      1.10s WALL (      10 calls)

     Called by *egterg:
     cdiaghg      :      0.00s CPU      0.00s WALL (      75 calls)
     h_psi        :      0.85s CPU      0.88s WALL (      76 calls)
     s_psi        :      0.03s CPU      0.03s WALL (      76 calls)
     g_psi        :      0.01s CPU      0.01s WALL (      65 calls)

     Called by h_psi:
     h_psi:calbec :      0.05s CPU      0.05s WALL (      76 calls)
     vloc_psi     :      0.72s CPU      0.74s WALL (      76 calls)
                                        0.00s GPU  (      76 calls)
     add_vuspsi   :      0.08s CPU      0.08s WALL (      76 calls)

     General routines
     calbec       :      0.07s CPU      0.07s WALL (     103 calls)
     fft          :      0.58s CPU      0.63s WALL (     146 calls)
     ffts         :      0.03s CPU      0.03s WALL (      10 calls)
     fftw         :      0.63s CPU      0.65s WALL (     720 calls)

     Parallel routines

     PWSCF        :      4.67s CPU      5.46s WALL


   This run was terminated on:  14:10:11   3Sep2026            

=------------------------------------------------------------------------------=
   JOB DONE.
=------------------------------------------------------------------------------=
