
     Program PWSCF v.7.5 starts on  3Sep2026 at 14:40:30 

     This program is part of the open-source Quantum ESPRESSO suite
     for quantum simulation of materials; please cite
         "P. Giannozzi et al., J. Phys.:Condens. Matter 21 395502 (2009);
         "P. Giannozzi et al., J. Phys.:Condens. Matter 29 465901 (2017);
         "P. Giannozzi et al., J. Chem. Phys. 152 154105 (2020);
          URL http://www.quantum-espresso.org", 
     in publications or presentations arising from this work. More details at
     http://www.quantum-espresso.org/quote

     Parallel version (MPI & OpenMP), running on       4 processor cores
     Number of MPI processes:                 4
     Threads/MPI process:                     1

     MPI processes distributed on     1 nodes
     2433 MiB available memory on the printing compute node when the environment starts

     Reading input from espresso.pwi
Warning: card &CELL ignored
Warning: card &FCP ignored
Warning: card &RISM ignored

     Current dimensions of program PWSCF are:
     Max number of different atomic species (ntypx) = 10
     Max number of k-points (npk) =  40000
     Max angular momentum in pseudopotentials (lmaxx) =  4

     R & G space division:  proc/nbgrp/npool/nimage =       4
     Subspace diagonalization in iterative solution of the eigenvalue problem:
     a serial algorithm will be used


     Parallelization info
     --------------------
     sticks:   dense  smooth     PW     G-vecs:    dense   smooth      PW
     Min         238     238     75                 4892     4892     869
     Max         239     239     76                 4896     4896     872
     Sum         955     955    301                19579    19579    3479

     Using Slab Decomposition



     bravais-lattice index     =            0
     lattice parameter (alat)  =       7.3079  a.u.
     unit-cell volume          =     275.9543 (a.u.)^3
     number of atoms/cell      =            2
     number of atomic types    =            1
     number of electrons       =         8.00
     number of Kohn-Sham states=            8
     kinetic-energy cutoff     =      65.0000  Ry
     charge density cutoff     =     260.0000  Ry
     scf convergence threshold =      1.0E-12
     mixing beta               =       0.7000
     number of iterations used =            8  plain     mixing
     Exchange-correlation= PBE
                           (   1   4   3   4   0   0   0)

     celldm(1)=   7.307928  celldm(2)=   0.000000  celldm(3)=   0.000000
     celldm(4)=   0.000000  celldm(5)=   0.000000  celldm(6)=   0.000000

     crystal axes: (cart. coord. in units of alat)
               a(1) = (  -0.000003   0.707104   0.707110 )  
               a(2) = (   0.707072   0.000011   0.707095 )  
               a(3) = (   0.707077   0.707096   0.000005 )  

     reciprocal axes: (cart. coord. in units 2 pi/alat)
               b(1) = ( -0.707134  0.707110  0.707100 )  
               b(2) = (  0.707143 -0.707130  0.707127 )  
               b(3) = (  0.707131  0.707128 -0.707119 )  


     PseudoPot. # 1 for Si read from file:
     ../../Si.upf
     MD5 check sum: 02fab3f35e82123ef5bf1cb05d5b1a5e
     Pseudo is Norm-conserving + core correction, Zval =  4.0
     Generated using ONCVPSP code by D. R. Hamann
     Using radial grid of 1510 points,  6 beta functions with: 
                l(1) =   0
                l(2) =   0
                l(3) =   1
                l(4) =   1
                l(5) =   2
                l(6) =   2

     atomic species   valence    mass     pseudopotential
     Si                4.00    28.08500     Si( 1.00)

     No symmetry found



   Cartesian axes

     site n.     atom                  positions (alat units)
         1        Si     tau(   1) = (   0.3600492   1.0567501   1.0632614  )
         2        Si     tau(   2) = (   0.0065061  -0.0039071   0.0026096  )

     number of k points=  1688  Gaussian smearing, width (Ry)=  0.0100

     Number of k-points >= 100: set verbosity='high' to print them.

     Dense  grid:    19579 G-vectors     FFT dimensions: (  40,  40,  40)

     Estimated max dynamical RAM per process >     130.85 MB

     Estimated total dynamical RAM >     523.38 MB

     Initial potential from superposition of free atoms

     starting charge       7.9988, renormalised to       8.0000
     Starting wfcs are    8 randomized atomic wfcs

     total cpu time spent up to now is        2.7 secs

     per-process dynamical memory:   152.5 Mb

     Self-consistent Calculation

     iteration #  1     ecut=    65.00 Ry     beta= 0.70
     Davidson diagonalization with overlap
     ethr =  1.00E-02,  avg # of iterations =  5.0

     Threshold (ethr) on eigenvalues was too large:
     Diagonalizing with lowered threshold

     Davidson diagonalization with overlap
     ethr =  6.31E-04,  avg # of iterations =  1.8

     total cpu time spent up to now is       22.0 secs

     total energy              =     -16.92304593 Ry
     estimated scf accuracy    <       0.05398531 Ry

     iteration #  2     ecut=    65.00 Ry     beta= 0.70
     Davidson diagonalization with overlap
     ethr =  6.75E-04,  avg # of iterations =  1.0

     total cpu time spent up to now is       29.1 secs

     total energy              =     -16.92515612 Ry
     estimated scf accuracy    <       0.00218631 Ry

     iteration #  3     ecut=    65.00 Ry     beta= 0.70
     Davidson diagonalization with overlap
     ethr =  2.73E-05,  avg # of iterations =  4.8

     total cpu time spent up to now is       37.4 secs

     total energy              =     -16.92526536 Ry
     estimated scf accuracy    <       0.00003725 Ry

     iteration #  4     ecut=    65.00 Ry     beta= 0.70
     Davidson diagonalization with overlap
     ethr =  4.66E-07,  avg # of iterations =  3.9

     total cpu time spent up to now is       45.5 secs

     total energy              =     -16.92527453 Ry
     estimated scf accuracy    <       0.00000017 Ry

     iteration #  5     ecut=    65.00 Ry     beta= 0.70
     Davidson diagonalization with overlap
     ethr =  2.09E-09,  avg # of iterations =  3.7

     total cpu time spent up to now is       53.6 secs

     total energy              =     -16.92527484 Ry
     estimated scf accuracy    <          9.6E-09 Ry

     iteration #  6     ecut=    65.00 Ry     beta= 0.70
     Davidson diagonalization with overlap
     ethr =  1.20E-10,  avg # of iterations =  2.0

     total cpu time spent up to now is       60.4 secs

     total energy              =     -16.92527485 Ry
     estimated scf accuracy    <          2.6E-10 Ry

     iteration #  7     ecut=    65.00 Ry     beta= 0.70
     Davidson diagonalization with overlap
     ethr =  3.25E-12,  avg # of iterations =  2.8

     total cpu time spent up to now is       67.6 secs

     total energy              =     -16.92527485 Ry
     estimated scf accuracy    <          1.1E-11 Ry

     iteration #  8     ecut=    65.00 Ry     beta= 0.70
     Davidson diagonalization with overlap
     ethr =  1.32E-13,  avg # of iterations =  2.8

     total cpu time spent up to now is       74.7 secs

     End of self-consistent calculation

     Number of k-points >= 100: set verbosity='high' to print the bands.

     the Fermi energy is     6.3103 ev

!    total energy              =     -16.92527485 Ry
     estimated scf accuracy    <          6.5E-13 Ry
     smearing contrib. (-TS)   =      -0.00000011 Ry
     internal energy E=F+TS    =     -16.92527473 Ry

     The total energy is F=E-TS. E is the sum of the following terms:
     one-electron contribution =       4.80090081 Ry
     hartree contribution      =       1.11366734 Ry
     xc contribution           =      -6.16039712 Ry
     ewald contribution        =     -16.67944577 Ry

     convergence has been achieved in   8 iterations

     Forces acting on atoms (cartesian axes, Ry/au):

     atom    1 type  1   force =    -0.00002920    0.00000304    0.00001927
     atom    2 type  1   force =     0.00002920   -0.00000304   -0.00001927

     Total force =     0.000050     Total SCF correction =     0.000000


     Computing stress (Cartesian axis) and pressure

          total   stress  (Ry/bohr**3)                   (kbar)     P=        0.02
   0.00000026   0.00000008   0.00000008            0.04        0.01        0.01
   0.00000008   0.00000009  -0.00000028            0.01        0.01       -0.04
   0.00000008  -0.00000028   0.00000004            0.01       -0.04        0.01


     Writing all to output data dir ./tmp_ase/si_tight_ase.save/ :
     XML data file, charge density, pseudopotentials, collected wavefunctions

     init_run     :      2.40s CPU      2.67s WALL (       1 calls)
     electrons    :     67.32s CPU     72.05s WALL (       1 calls)
     forces       :      0.60s CPU      0.62s WALL (       1 calls)
     stress       :      2.95s CPU      3.02s WALL (       1 calls)

     Called by init_run:
     wfcinit      :      2.21s CPU      2.48s WALL (       1 calls)
     potinit      :      0.01s CPU      0.01s WALL (       1 calls)
     hinit0       :      0.14s CPU      0.14s WALL (       1 calls)

     Called by electrons:
     c_bands      :     58.06s CPU     62.12s WALL (       9 calls)
     sum_band     :      9.23s CPU      9.89s WALL (       9 calls)
     v_of_rho     :      0.03s CPU      0.03s WALL (       9 calls)
     mix_rho      :      0.00s CPU      0.00s WALL (       9 calls)

     Called by c_bands:
     init_us_2    :      2.59s CPU      2.75s WALL (   35448 calls)
     cegterg      :     52.52s CPU     56.29s WALL (   15192 calls)

     Called by *egterg:
     cdiaghg      :      1.82s CPU      1.95s WALL (   60610 calls)
     h_psi        :     48.42s CPU     52.01s WALL (   63986 calls)
     g_psi        :      0.37s CPU      0.39s WALL (   47106 calls)

     Called by h_psi:
     h_psi:calbec :      2.21s CPU      2.38s WALL (   63986 calls)
     vloc_psi     :     44.70s CPU     48.01s WALL (   63986 calls)
                                        0.00s GPU  (   63986 calls)
     add_vuspsi   :      1.30s CPU      1.40s WALL (   63986 calls)

     General routines
     calbec       :      3.51s CPU      3.71s WALL (   92682 calls)
     fft          :      0.14s CPU      0.14s WALL (     115 calls)
     ffts         :      0.00s CPU      0.00s WALL (       9 calls)
     fftw         :     47.92s CPU     51.46s WALL (  808934 calls)

     Parallel routines

     PWSCF        :   1m13.79s CPU   1m19.19s WALL


   This run was terminated on:  14:41:49   3Sep2026            

=------------------------------------------------------------------------------=
   JOB DONE.
=------------------------------------------------------------------------------=
