
     Program PWSCF v.7.5 starts on  8Sep2026 at 19:45:16 

     This program is part of the open-source Quantum ESPRESSO suite
     for quantum simulation of materials; please cite
         "P. Giannozzi et al., J. Phys.:Condens. Matter 21 395502 (2009);
         "P. Giannozzi et al., J. Phys.:Condens. Matter 29 465901 (2017);
         "P. Giannozzi et al., J. Chem. Phys. 152 154105 (2020);
          URL http://www.quantum-espresso.org", 
     in publications or presentations arising from this work. More details at
     http://www.quantum-espresso.org/quote

     Parallel version (MPI & OpenMP), running on       8 processor cores
     Number of MPI processes:                 4
     Threads/MPI process:                     2

     MPI processes distributed on     1 nodes
     2238 MiB available memory on the printing compute node when the environment starts

     Reading input from espresso.pwi
Warning: card &CELL ignored
Warning: card &FCP ignored
Warning: card &RISM ignored

     Current dimensions of program PWSCF are:
     Max number of different atomic species (ntypx) = 10
     Max number of k-points (npk) =  40000
     Max angular momentum in pseudopotentials (lmaxx) =  4
     Found identity + (  0.0000 -0.5000  0.0000) symmetry
     This is a supercell, fractional translations are disabled
     Message from routine setup:
     using ibrav=0 with symmetry is DISCOURAGED, use correct ibrav instead

     R & G space division:  proc/nbgrp/npool/nimage =       4
     Subspace diagonalization in iterative solution of the eigenvalue problem:
     a serial algorithm will be used


     Parallelization info
     --------------------
     sticks:   dense  smooth     PW     G-vecs:    dense   smooth      PW
     Min         598     598    148                72024    72024    8986
     Max         599     599    149                72037    72037    8997
     Sum        2395    2395    595               288127   288127   35965

     Using Slab Decomposition



     bravais-lattice index     =            0
     lattice parameter (alat)  =       9.3214  a.u.
     unit-cell volume          =    2132.9405 (a.u.)^3
     number of atoms/cell      =            8
     number of atomic types    =            1
     number of electrons       =        32.00
     number of Kohn-Sham states=           20
     kinetic-energy cutoff     =     100.0000  Ry
     charge density cutoff     =     400.0000  Ry
     scf convergence threshold =      1.0E-10
     mixing beta               =       0.7000
     number of iterations used =            8  plain     mixing
     Exchange-correlation= PBE
                           (   1   4   3   4   0   0   0)

     celldm(1)=   9.321354  celldm(2)=   0.000000  celldm(3)=   0.000000
     celldm(4)=   0.000000  celldm(5)=   0.000000  celldm(6)=   0.000000

     crystal axes: (cart. coord. in units of alat)
               a(1) = (   1.000000   0.000000   0.000000 )  
               a(2) = (  -0.500000   0.866025   0.000000 )  
               a(3) = (   0.000000   0.000000   3.040963 )  

     reciprocal axes: (cart. coord. in units 2 pi/alat)
               b(1) = (  1.000000  0.577350 -0.000000 )  
               b(2) = (  0.000000  1.154701  0.000000 )  
               b(3) = (  0.000000 -0.000000  0.328843 )  


     PseudoPot. # 1 for C  read from file:
     /home/danil/home/Molecular-and-Materials-Modeling-2026-Challenges/pseudopotentials/C.upf
     MD5 check sum: 34a24e64c0a39f27c6c36b90a16ac686
     Pseudo is Norm-conserving + core correction, Zval =  4.0
     Generated using ONCVPSP code by D. R. Hamann
     Using radial grid of 1248 points,  4 beta functions with: 
                l(1) =   0
                l(2) =   0
                l(3) =   1
                l(4) =   1

     atomic species   valence    mass     pseudopotential
     C                 4.00    12.01100     C ( 1.00)

     Starting magnetic structure 
     atomic species   magnetization
     C               0.000

     12 Sym. Ops. (no inversion) found



   Cartesian axes

     site n.     atom                  positions (alat units)
         1        C      tau(   1) = (   0.0000000   0.0000000   1.5204814  )
         2        C      tau(   2) = (  -0.2500001   0.4330127   1.5204814  )
         3        C      tau(   3) = (   0.5000000   0.0000000   1.5204814  )
         4        C      tau(   4) = (   0.2499999   0.4330127   1.5204814  )
         5        C      tau(   5) = (  -0.0000000   0.2886751   1.5204814  )
         6        C      tau(   6) = (  -0.2500001   0.7216878   1.5204814  )
         7        C      tau(   7) = (   0.4999999   0.2886751   1.5204814  )
         8        C      tau(   8) = (   0.2499999   0.7216878   1.5204814  )

     --------------------------------------------
     DFT-D3 Dispersion Correction (3-body terms):
     --------------------------------------------
       Reference C6 values for interpolation: 

         atom   Coordination number   C6
         C          0.000            98.23
         C          0.987            86.49
         C          1.998            58.72
         C          2.999            51.56
         C          3.984            36.41

       Values used:

         atom   Coordination number  R0_AB[au]  C6      C8
         C          3.305            2.750     48.46   1401.58
         C          3.305            2.750     48.46   1401.58
         C          3.305            2.750     48.46   1401.58
         C          3.305            2.750     48.46   1401.58
         C          3.305            2.750     48.46   1401.58
         C          3.305            2.750     48.46   1401.58
         C          3.305            2.750     48.46   1401.58
         C          3.305            2.750     48.46   1401.58

         Molecular C6 ( Ry / a.u.^6 ) =      3101.52


     number of k points=     1  Gaussian smearing, width (Ry)=  0.0100
                       cart. coord. in units 2pi/alat
        k(    1) = (   0.0000000   0.0000000   0.0000000), wk =   1.0000000

     Dense  grid:   288127 G-vectors     FFT dimensions: (  60,  60, 192)

     Estimated max dynamical RAM per process >      98.97 MB

     Estimated total dynamical RAM >     395.88 MB
     Generating pointlists ...
     new r_m :   0.1191 (alat units)  1.1100 (a.u.) for type    1

     Initial potential from superposition of free atoms

     starting charge      31.9996, renormalised to      32.0000

     negative rho (up, down):  2.645E-06 2.645E-06
     Starting wfcs are   32 randomized atomic wfcs

     total cpu time spent up to now is        0.7 secs

     per-process dynamical memory:    84.7 Mb

     Self-consistent Calculation

     iteration #  1     ecut=   100.00 Ry     beta= 0.70
     Davidson diagonalization with overlap
     ethr =  1.00E-02,  avg # of iterations =  3.0

     total cpu time spent up to now is        1.3 secs

     total energy              =     -95.71283560 Ry
     estimated scf accuracy    <       0.86553207 Ry

     total magnetization       =    -0.00 Bohr mag/cell
     absolute magnetization    =     0.00 Bohr mag/cell

     iteration #  2     ecut=   100.00 Ry     beta= 0.70
     Davidson diagonalization with overlap
     ethr =  2.70E-03,  avg # of iterations =  2.0

     total cpu time spent up to now is        1.7 secs

     total energy              =     -95.81174599 Ry
     estimated scf accuracy    <       0.01532893 Ry

     total magnetization       =    -0.00 Bohr mag/cell
     absolute magnetization    =     0.00 Bohr mag/cell

     iteration #  3     ecut=   100.00 Ry     beta= 0.70
     Davidson diagonalization with overlap
     ethr =  4.79E-05,  avg # of iterations =  2.0

     total cpu time spent up to now is        2.2 secs

     total energy              =     -95.81646043 Ry
     estimated scf accuracy    <       0.00115924 Ry

     total magnetization       =    -0.00 Bohr mag/cell
     absolute magnetization    =     0.00 Bohr mag/cell

     iteration #  4     ecut=   100.00 Ry     beta= 0.70
     Davidson diagonalization with overlap
     ethr =  3.62E-06,  avg # of iterations = 15.0

     total cpu time spent up to now is        2.9 secs

     total energy              =     -95.81677643 Ry
     estimated scf accuracy    <       0.00007987 Ry

     total magnetization       =     0.00 Bohr mag/cell
     absolute magnetization    =     0.00 Bohr mag/cell

     iteration #  5     ecut=   100.00 Ry     beta= 0.70
     Davidson diagonalization with overlap
     ethr =  2.50E-07,  avg # of iterations =  3.0

     total cpu time spent up to now is        3.5 secs

     total energy              =     -95.81679382 Ry
     estimated scf accuracy    <       0.00000469 Ry

     total magnetization       =     0.00 Bohr mag/cell
     absolute magnetization    =     0.00 Bohr mag/cell

     iteration #  6     ecut=   100.00 Ry     beta= 0.70
     Davidson diagonalization with overlap
     ethr =  1.47E-08,  avg # of iterations =  2.0

     total cpu time spent up to now is        4.0 secs

     total energy              =     -95.81679533 Ry
     estimated scf accuracy    <       0.00000133 Ry

     total magnetization       =     0.00 Bohr mag/cell
     absolute magnetization    =     0.00 Bohr mag/cell

     iteration #  7     ecut=   100.00 Ry     beta= 0.70
     Davidson diagonalization with overlap
     ethr =  4.15E-09,  avg # of iterations =  2.0

     total cpu time spent up to now is        4.5 secs

     total energy              =     -95.81679552 Ry
     estimated scf accuracy    <       0.00000002 Ry

     total magnetization       =    -0.00 Bohr mag/cell
     absolute magnetization    =     0.00 Bohr mag/cell

     iteration #  8     ecut=   100.00 Ry     beta= 0.70
     Davidson diagonalization with overlap
     ethr =  5.05E-11,  avg # of iterations =  5.0

     total cpu time spent up to now is        5.1 secs

     total energy              =     -95.81679554 Ry
     estimated scf accuracy    <          1.9E-09 Ry

     total magnetization       =    -0.00 Bohr mag/cell
     absolute magnetization    =     0.00 Bohr mag/cell

     iteration #  9     ecut=   100.00 Ry     beta= 0.70
     Davidson diagonalization with overlap
     ethr =  6.03E-12,  avg # of iterations =  2.0

     total cpu time spent up to now is        5.6 secs

     total energy              =     -95.81679555 Ry
     estimated scf accuracy    <          2.3E-10 Ry

     total magnetization       =    -0.00 Bohr mag/cell
     absolute magnetization    =     0.00 Bohr mag/cell

     iteration # 10     ecut=   100.00 Ry     beta= 0.70
     Davidson diagonalization with overlap
     ethr =  7.34E-13,  avg # of iterations =  3.0

     Magnetic moment per site  (integrated on atomic sphere of radius R)
     atom   1 (R=0.119)  charge=  1.7381  magn=  0.0000
     atom   2 (R=0.119)  charge=  1.7381  magn=  0.0000
     atom   3 (R=0.119)  charge=  1.7381  magn=  0.0000
     atom   4 (R=0.119)  charge=  1.7381  magn=  0.0000
     atom   5 (R=0.119)  charge=  1.7381  magn= -0.0000
     atom   6 (R=0.119)  charge=  1.7381  magn= -0.0000
     atom   7 (R=0.119)  charge=  1.7381  magn= -0.0000
     atom   8 (R=0.119)  charge=  1.7381  magn= -0.0000

     total cpu time spent up to now is        6.1 secs

     End of self-consistent calculation

 ------ SPIN UP ------------


          k = 0.0000 0.0000 0.0000 ( 35965 PWs)   bands (ev):

   -20.8507 -15.5840 -15.5840 -15.5840 -14.5589 -14.5589 -14.5589  -9.0296
    -7.6952  -7.6952  -7.6952  -4.2712  -4.2712  -3.7390  -3.7390  -3.7390
     0.3108   0.3108   0.3108   1.5350

 ------ SPIN DOWN ----------


          k = 0.0000 0.0000 0.0000 ( 35965 PWs)   bands (ev):

   -20.8507 -15.5840 -15.5840 -15.5840 -14.5589 -14.5589 -14.5589  -9.0296
    -7.6952  -7.6952  -7.6952  -4.2712  -4.2712  -3.7390  -3.7390  -3.7390
     0.3108   0.3108   0.3108   1.5350

     the Fermi energy is    -1.8119 ev

!    total energy              =     -95.81679555 Ry
     estimated scf accuracy    <          5.2E-11 Ry
     smearing contrib. (-TS)   =      -0.00000000 Ry
     internal energy E=F+TS    =     -95.81679555 Ry

     The total energy is F=E-TS. E is the sum of the following terms:
     one-electron contribution =    -628.03805742 Ry
     hartree contribution      =     320.93573577 Ry
     xc contribution           =     -34.54207965 Ry
     ewald contribution        =     245.88036471 Ry
     DFT-D3 Dispersion         =      -0.05275896 Ry

     total magnetization       =    -0.00 Bohr mag/cell
     absolute magnetization    =     0.00 Bohr mag/cell

     convergence has been achieved in  10 iterations

     Forces acting on atoms (cartesian axes, Ry/au):

     atom    1 type  1   force =     0.00000000    0.00000000    0.00000000
     atom    2 type  1   force =     0.00000003    0.00000002    0.00000000
     atom    3 type  1   force =     0.00000000   -0.00000003    0.00000000
     atom    4 type  1   force =    -0.00000003    0.00000002    0.00000000
     atom    5 type  1   force =     0.00000000    0.00000018    0.00000000
     atom    6 type  1   force =     0.00000015   -0.00000009    0.00000000
     atom    7 type  1   force =     0.00000000    0.00000000    0.00000000
     atom    8 type  1   force =    -0.00000015   -0.00000009    0.00000000

     Total force =     0.000000     Total SCF correction =     0.000005
     SCF correction compared to forces is large: reduce conv_thr to get better values


     Computing stress (Cartesian axis) and pressure

          total   stress  (Ry/bohr**3)                   (kbar)     P=       29.62
   0.00030210   0.00000000   0.00000000           44.44        0.00        0.00
   0.00000000   0.00030210  -0.00000000            0.00       44.44       -0.00
  -0.00000000   0.00000000  -0.00000011           -0.00        0.00       -0.02


     Writing all to output data dir ./tmp/c8_100.save/ :
     XML data file, charge density, pseudopotentials, collected wavefunctions

     init_run     :      0.76s CPU      0.69s WALL (       1 calls)
     electrons    :      8.89s CPU      5.42s WALL (       1 calls)
     forces       :      0.37s CPU      0.26s WALL (       1 calls)
     force_dftd3  :      0.05s CPU      0.05s WALL (       1 calls)
     stress       :      0.64s CPU      0.45s WALL (       1 calls)
     stres_dftd3  :      0.05s CPU      0.05s WALL (       1 calls)

     Called by init_run:
     wfcinit      :      0.27s CPU      0.19s WALL (       1 calls)
     potinit      :      0.13s CPU      0.14s WALL (       1 calls)
     hinit0       :      0.31s CPU      0.32s WALL (       1 calls)

     Called by electrons:
     c_bands      :      5.93s CPU      3.33s WALL (      10 calls)
     sum_band     :      1.20s CPU      0.64s WALL (      10 calls)
     v_of_rho     :      1.25s CPU      1.10s WALL (      11 calls)
     mix_rho      :      0.48s CPU      0.35s WALL (      10 calls)
     energy_dftd3 :      0.08s CPU      0.04s WALL (       1 calls)

     Called by c_bands:
     init_us_2    :      0.31s CPU      0.20s WALL (      46 calls)
     cegterg      :      5.63s CPU      3.13s WALL (      20 calls)

     Called by *egterg:
     cdiaghg      :      0.05s CPU      0.03s WALL (      98 calls)
     h_psi        :      4.95s CPU      2.78s WALL (     100 calls)
     g_psi        :      0.05s CPU      0.02s WALL (      78 calls)

     Called by h_psi:
     h_psi:calbec :      0.32s CPU      0.17s WALL (     100 calls)
     vloc_psi     :      4.21s CPU      2.39s WALL (     100 calls)
                                        0.00s GPU  (     100 calls)
     add_vuspsi   :      0.35s CPU      0.19s WALL (     100 calls)

     General routines
     calbec       :      0.46s CPU      0.25s WALL (     134 calls)
     fft          :      0.94s CPU      0.87s WALL (     249 calls)
     ffts         :      0.05s CPU      0.03s WALL (      20 calls)
     fftw         :      4.29s CPU      2.39s WALL (    2826 calls)

     Parallel routines

     PWSCF        :     10.71s CPU      6.87s WALL


   This run was terminated on:  19:45:23   8Sep2026            

=------------------------------------------------------------------------------=
   JOB DONE.
=------------------------------------------------------------------------------=
