
     Program PWSCF v.7.5 starts on  8Sep2026 at 19:39:56 

     This program is part of the open-source Quantum ESPRESSO suite
     for quantum simulation of materials; please cite
         "P. Giannozzi et al., J. Phys.:Condens. Matter 21 395502 (2009);
         "P. Giannozzi et al., J. Phys.:Condens. Matter 29 465901 (2017);
         "P. Giannozzi et al., J. Chem. Phys. 152 154105 (2020);
          URL http://www.quantum-espresso.org", 
     in publications or presentations arising from this work. More details at
     http://www.quantum-espresso.org/quote

     Parallel version (MPI & OpenMP), running on       8 processor cores
     Number of MPI processes:                 4
     Threads/MPI process:                     2

     MPI processes distributed on     1 nodes
     3055 MiB available memory on the printing compute node when the environment starts

     Reading input from espresso.pwi
Warning: card &CELL ignored
Warning: card &FCP ignored
Warning: card &RISM ignored

     Current dimensions of program PWSCF are:
     Max number of different atomic species (ntypx) = 10
     Max number of k-points (npk) =  40000
     Max angular momentum in pseudopotentials (lmaxx) =  4
     Message from routine setup:
     using ibrav=0 with symmetry is DISCOURAGED, use correct ibrav instead

     R & G space division:  proc/nbgrp/npool/nimage =       4
     Subspace diagonalization in iterative solution of the eigenvalue problem:
     a serial algorithm will be used


     Parallelization info
     --------------------
     sticks:   dense  smooth     PW     G-vecs:    dense   smooth      PW
     Min         102     102     31                 1332     1332     241
     Max         103     103     32                 1333     1333     242
     Sum         409     409    127                 5329     5329     965

     Using Slab Decomposition



     bravais-lattice index     =            0
     lattice parameter (alat)  =       5.4104  a.u.
     unit-cell volume          =     111.9902 (a.u.)^3
     number of atoms/cell      =            1
     number of atomic types    =            1
     number of electrons       =         3.00
     number of Kohn-Sham states=            6
     kinetic-energy cutoff     =      50.0000  Ry
     charge density cutoff     =     200.0000  Ry
     scf convergence threshold =      1.0E-10
     mixing beta               =       0.7000
     number of iterations used =            8  plain     mixing
     Exchange-correlation= PBE
                           (   1   4   3   4   0   0   0)

     celldm(1)=   5.410428  celldm(2)=   0.000000  celldm(3)=   0.000000
     celldm(4)=   0.000000  celldm(5)=   0.000000  celldm(6)=   0.000000

     crystal axes: (cart. coord. in units of alat)
               a(1) = (   0.000000   0.707107   0.707107 )  
               a(2) = (   0.707107   0.000000   0.707107 )  
               a(3) = (   0.707107   0.707107   0.000000 )  

     reciprocal axes: (cart. coord. in units 2 pi/alat)
               b(1) = ( -0.707107  0.707107  0.707107 )  
               b(2) = (  0.707107 -0.707107  0.707107 )  
               b(3) = (  0.707107  0.707107 -0.707107 )  


     PseudoPot. # 1 for Al read from file:
     /home/danil/home/Molecular-and-Materials-Modeling-2026-Challenges/pseudopotentials/Al.upf
     MD5 check sum: 0b5c6c21fc59a2e497c09c32fa85f380
     Pseudo is Norm-conserving + core correction, Zval =  3.0
     Generated using ONCVPSP code by D. R. Hamann
     Using radial grid of 1876 points,  6 beta functions with: 
                l(1) =   0
                l(2) =   0
                l(3) =   1
                l(4) =   1
                l(5) =   2
                l(6) =   2

     atomic species   valence    mass     pseudopotential
     Al                3.00    26.98154     Al( 1.00)

     48 Sym. Ops., with inversion, found



   Cartesian axes

     site n.     atom                  positions (alat units)
         1        Al     tau(   1) = (   0.0000000   0.0000000   0.0000000  )

     number of k points=    16  Marzari-Vanderbilt smearing, width (Ry)=  0.0200
                       cart. coord. in units 2pi/alat
        k(    1) = (   0.0000000   0.0000000   0.0000000), wk =   0.0092593
        k(    2) = (   0.1178511   0.1178511  -0.1178511), wk =   0.0740741
        k(    3) = (   0.2357023   0.2357023  -0.2357023), wk =   0.0740741
        k(    4) = (  -0.3535534  -0.3535534   0.3535534), wk =   0.0370370
        k(    5) = (   0.2357023   0.0000000   0.0000000), wk =   0.0555556
        k(    6) = (   0.3535534   0.1178511  -0.1178511), wk =   0.2222222
        k(    7) = (  -0.2357023  -0.4714045   0.4714045), wk =   0.2222222
        k(    8) = (  -0.1178511  -0.3535534   0.3535534), wk =   0.2222222
        k(    9) = (   0.0000000  -0.2357023   0.2357023), wk =   0.1111111
        k(   10) = (   0.4714045   0.0000000   0.0000000), wk =   0.0555556
        k(   11) = (  -0.1178511  -0.5892557   0.5892557), wk =   0.2222222
        k(   12) = (  -0.0000000  -0.4714045   0.4714045), wk =   0.1111111
        k(   13) = (  -0.7071068   0.0000000   0.0000000), wk =   0.0277778
        k(   14) = (  -0.2357023  -0.4714045   0.7071068), wk =   0.2222222
        k(   15) = (  -0.1178511  -0.3535534   0.5892557), wk =   0.2222222
        k(   16) = (  -0.7071068   0.2357023   0.0000000), wk =   0.1111111

     Dense  grid:     5329 G-vectors     FFT dimensions: (  25,  25,  25)

     Estimated max dynamical RAM per process >       2.37 MB

     Estimated total dynamical RAM >       9.46 MB

     Initial potential from superposition of free atoms

     starting charge       2.9976, renormalised to       3.0000
     Starting wfcs are    4 randomized atomic wfcs +    2 random wfcs

     total cpu time spent up to now is        0.1 secs

     per-process dynamical memory:    11.9 Mb

     Self-consistent Calculation

     iteration #  1     ecut=    50.00 Ry     beta= 0.70
     Davidson diagonalization with overlap
     ethr =  1.00E-02,  avg # of iterations =  6.8

     Threshold (ethr) on eigenvalues was too large:
     Diagonalizing with lowered threshold

     Davidson diagonalization with overlap
     ethr =  1.87E-04,  avg # of iterations =  2.9

     total cpu time spent up to now is        0.2 secs

     total energy              =      -4.64032381 Ry
     estimated scf accuracy    <       0.00549416 Ry

     iteration #  2     ecut=    50.00 Ry     beta= 0.70
     Davidson diagonalization with overlap
     ethr =  1.83E-04,  avg # of iterations =  1.1

     total cpu time spent up to now is        0.3 secs

     total energy              =      -4.64029398 Ry
     estimated scf accuracy    <       0.00037999 Ry

     iteration #  3     ecut=    50.00 Ry     beta= 0.70
     Davidson diagonalization with overlap
     ethr =  1.27E-05,  avg # of iterations =  2.6

     total cpu time spent up to now is        0.3 secs

     total energy              =      -4.64031109 Ry
     estimated scf accuracy    <       0.00000073 Ry

     iteration #  4     ecut=    50.00 Ry     beta= 0.70
     Davidson diagonalization with overlap
     ethr =  2.42E-08,  avg # of iterations =  3.4

     total cpu time spent up to now is        0.4 secs

     total energy              =      -4.64031215 Ry
     estimated scf accuracy    <       0.00000001 Ry

     iteration #  5     ecut=    50.00 Ry     beta= 0.70
     Davidson diagonalization with overlap
     ethr =  4.86E-10,  avg # of iterations =  2.2

     total cpu time spent up to now is        0.4 secs

     End of self-consistent calculation

          k = 0.0000 0.0000 0.0000 (   645 PWs)   bands (ev):

    -3.2292  20.4485  20.4486  21.8808  21.8808  21.8808

          k = 0.1179 0.1179-0.1179 (   661 PWs)   bands (ev):

    -2.4788  14.4864  19.1684  19.1685  22.3898  23.7983

          k = 0.2357 0.2357-0.2357 (   658 PWs)   bands (ev):

    -0.2503   8.3618  18.5878  18.5878  21.1686  21.1687

          k =-0.3536-0.3536 0.3536 (   652 PWs)   bands (ev):

     3.2930   3.4983  19.2048  19.2048  19.2974  19.2974

          k = 0.2357 0.0000 0.0000 (   665 PWs)   bands (ev):

    -2.2294  16.8414  16.8414  17.0141  20.0700  20.3085

          k = 0.3536 0.1179-0.1179 (   664 PWs)   bands (ev):

    -0.4965  10.8589  15.7867  16.5195  17.4304  22.3016

          k =-0.2357-0.4714 0.4714 (   672 PWs)   bands (ev):

     2.6653   5.5413  14.0625  16.0127  17.7916  23.7696

          k =-0.1179-0.3536 0.3536 (   672 PWs)   bands (ev):

     1.4593   7.1671  12.9544  17.5204  19.4461  22.7086

          k = 0.0000-0.2357 0.2357 (   662 PWs)   bands (ev):

    -1.2366  12.3402  13.7411  20.2654  22.2861  22.3900

          k = 0.4714 0.0000 0.0000 (   680 PWs)   bands (ev):

     0.7268  12.2322  14.1100  14.2876  14.2876  17.7731

          k =-0.1179-0.5893 0.5893 (   674 PWs)   bands (ev):

     3.3662   8.8996   9.3635  14.0780  15.5838  20.7320

          k =-0.0000-0.4714 0.4714 (   680 PWs)   bands (ev):

     4.5729   6.7961   8.2555  15.1543  16.9164  26.4549

          k =-0.7071 0.0000 0.0000 (   692 PWs)   bands (ev):

     4.9537   6.2717  13.1227  13.4354  13.4354  16.8796

          k =-0.2357-0.4714 0.7071 (   670 PWs)   bands (ev):

     1.6996   9.5681  11.0208  13.2179  20.6392  22.2526

          k =-0.1179-0.3536 0.5893 (   672 PWs)   bands (ev):

     5.1434   5.4038  10.8649  11.4224  21.8255  22.3174

          k =-0.7071 0.2357 0.0000 (   674 PWs)   bands (ev):

     5.8742   7.2199   8.6435  10.2031  19.7536  21.5695

     the Fermi energy is     8.2236 ev

!    total energy              =      -4.64031216 Ry
     estimated scf accuracy    <          6.0E-12 Ry
     smearing contrib. (-TS)   =      -0.00054668 Ry
     internal energy E=F+TS    =      -4.63976547 Ry

     The total energy is F=E-TS. E is the sum of the following terms:
     one-electron contribution =       2.90988594 Ry
     hartree contribution      =       0.00678303 Ry
     xc contribution           =      -2.16353721 Ry
     ewald contribution        =      -5.39289723 Ry

     convergence has been achieved in   5 iterations

     Forces acting on atoms (cartesian axes, Ry/au):

     atom    1 type  1   force =     0.00000000    0.00000000    0.00000000

     Total force =     0.000000     Total SCF correction =     0.000000


     Computing stress (Cartesian axis) and pressure

          total   stress  (Ry/bohr**3)                   (kbar)     P=       -3.11
  -0.00002117   0.00000000   0.00000000           -3.11        0.00        0.00
   0.00000000  -0.00002117   0.00000000            0.00       -3.11        0.00
   0.00000000   0.00000000  -0.00002117            0.00        0.00       -3.11


     Writing all to output data dir ./tmp/kgrid_6.save/ :
     XML data file, charge density, pseudopotentials, collected wavefunctions

     init_run     :      0.06s CPU      0.07s WALL (       1 calls)
     electrons    :      0.25s CPU      0.35s WALL (       1 calls)
     forces       :      0.00s CPU      0.00s WALL (       1 calls)
     stress       :      0.01s CPU      0.01s WALL (       1 calls)

     Called by init_run:
     wfcinit      :      0.01s CPU      0.02s WALL (       1 calls)
     potinit      :      0.01s CPU      0.01s WALL (       1 calls)
     hinit0       :      0.04s CPU      0.04s WALL (       1 calls)

     Called by electrons:
     c_bands      :      0.20s CPU      0.29s WALL (       6 calls)
     sum_band     :      0.04s CPU      0.05s WALL (       6 calls)
     v_of_rho     :      0.01s CPU      0.01s WALL (       6 calls)
     mix_rho      :      0.00s CPU      0.00s WALL (       6 calls)

     Called by c_bands:
     init_us_2    :      0.01s CPU      0.01s WALL (     240 calls)
     cegterg      :      0.19s CPU      0.28s WALL (      96 calls)

     Called by *egterg:
     cdiaghg      :      0.01s CPU      0.01s WALL (     381 calls)
     h_psi        :      0.17s CPU      0.26s WALL (     413 calls)
     g_psi        :      0.00s CPU      0.00s WALL (     301 calls)

     Called by h_psi:
     h_psi:calbec :      0.01s CPU      0.01s WALL (     413 calls)
     vloc_psi     :      0.16s CPU      0.24s WALL (     413 calls)
                                        0.00s GPU  (     413 calls)
     add_vuspsi   :      0.00s CPU      0.00s WALL (     413 calls)

     General routines
     calbec       :      0.02s CPU      0.02s WALL (     685 calls)
     fft          :      0.03s CPU      0.03s WALL (      85 calls)
     ffts         :      0.00s CPU      0.00s WALL (       6 calls)
     fftw         :      0.17s CPU      0.25s WALL (    3952 calls)

     Parallel routines

     PWSCF        :      0.36s CPU      0.48s WALL


   This run was terminated on:  19:39:57   8Sep2026            

=------------------------------------------------------------------------------=
   JOB DONE.
=------------------------------------------------------------------------------=
