
     Program PWSCF v.7.5 starts on  8Sep2026 at 19:39:41 

     This program is part of the open-source Quantum ESPRESSO suite
     for quantum simulation of materials; please cite
         "P. Giannozzi et al., J. Phys.:Condens. Matter 21 395502 (2009);
         "P. Giannozzi et al., J. Phys.:Condens. Matter 29 465901 (2017);
         "P. Giannozzi et al., J. Chem. Phys. 152 154105 (2020);
          URL http://www.quantum-espresso.org", 
     in publications or presentations arising from this work. More details at
     http://www.quantum-espresso.org/quote

     Parallel version (MPI & OpenMP), running on       8 processor cores
     Number of MPI processes:                 4
     Threads/MPI process:                     2

     MPI processes distributed on     1 nodes
     2973 MiB available memory on the printing compute node when the environment starts

     Reading input from espresso.pwi
Warning: card &CELL ignored
Warning: card &FCP ignored
Warning: card &RISM ignored

     Current dimensions of program PWSCF are:
     Max number of different atomic species (ntypx) = 10
     Max number of k-points (npk) =  40000
     Max angular momentum in pseudopotentials (lmaxx) =  4
     Message from routine setup:
     using ibrav=0 with symmetry is DISCOURAGED, use correct ibrav instead

     R & G space division:  proc/nbgrp/npool/nimage =       4
     Subspace diagonalization in iterative solution of the eigenvalue problem:
     a serial algorithm will be used


     Parallelization info
     --------------------
     sticks:   dense  smooth     PW     G-vecs:    dense   smooth      PW
     Min          78      78     27                  958      958     186
     Max          79      79     28                  963      963     189
     Sum         313     313    109                 3839     3839     749

     Using Slab Decomposition



     bravais-lattice index     =            0
     lattice parameter (alat)  =       5.4104  a.u.
     unit-cell volume          =     111.9902 (a.u.)^3
     number of atoms/cell      =            1
     number of atomic types    =            1
     number of electrons       =         3.00
     number of Kohn-Sham states=            6
     kinetic-energy cutoff     =      40.0000  Ry
     charge density cutoff     =     160.0000  Ry
     scf convergence threshold =      1.0E-10
     mixing beta               =       0.7000
     number of iterations used =            8  plain     mixing
     Exchange-correlation= PBE
                           (   1   4   3   4   0   0   0)

     celldm(1)=   5.410428  celldm(2)=   0.000000  celldm(3)=   0.000000
     celldm(4)=   0.000000  celldm(5)=   0.000000  celldm(6)=   0.000000

     crystal axes: (cart. coord. in units of alat)
               a(1) = (   0.000000   0.707107   0.707107 )  
               a(2) = (   0.707107   0.000000   0.707107 )  
               a(3) = (   0.707107   0.707107   0.000000 )  

     reciprocal axes: (cart. coord. in units 2 pi/alat)
               b(1) = ( -0.707107  0.707107  0.707107 )  
               b(2) = (  0.707107 -0.707107  0.707107 )  
               b(3) = (  0.707107  0.707107 -0.707107 )  


     PseudoPot. # 1 for Al read from file:
     /home/danil/home/Molecular-and-Materials-Modeling-2026-Challenges/pseudopotentials/Al.upf
     MD5 check sum: 0b5c6c21fc59a2e497c09c32fa85f380
     Pseudo is Norm-conserving + core correction, Zval =  3.0
     Generated using ONCVPSP code by D. R. Hamann
     Using radial grid of 1876 points,  6 beta functions with: 
                l(1) =   0
                l(2) =   0
                l(3) =   1
                l(4) =   1
                l(5) =   2
                l(6) =   2

     atomic species   valence    mass     pseudopotential
     Al                3.00    26.98154     Al( 1.00)

     48 Sym. Ops., with inversion, found



   Cartesian axes

     site n.     atom                  positions (alat units)
         1        Al     tau(   1) = (   0.0000000   0.0000000   0.0000000  )

     number of k points=    29  Marzari-Vanderbilt smearing, width (Ry)=  0.0200
                       cart. coord. in units 2pi/alat
        k(    1) = (   0.0000000   0.0000000   0.0000000), wk =   0.0039062
        k(    2) = (   0.0883883   0.0883883  -0.0883883), wk =   0.0312500
        k(    3) = (   0.1767767   0.1767767  -0.1767767), wk =   0.0312500
        k(    4) = (   0.2651650   0.2651650  -0.2651650), wk =   0.0312500
        k(    5) = (  -0.3535534  -0.3535534   0.3535534), wk =   0.0156250
        k(    6) = (   0.1767767   0.0000000   0.0000000), wk =   0.0234375
        k(    7) = (   0.2651650   0.0883883  -0.0883883), wk =   0.0937500
        k(    8) = (   0.3535534   0.1767767  -0.1767767), wk =   0.0937500
        k(    9) = (  -0.2651650  -0.4419417   0.4419417), wk =   0.0937500
        k(   10) = (  -0.1767767  -0.3535534   0.3535534), wk =   0.0937500
        k(   11) = (  -0.0883883  -0.2651650   0.2651650), wk =   0.0937500
        k(   12) = (   0.0000000  -0.1767767   0.1767767), wk =   0.0468750
        k(   13) = (   0.3535534   0.0000000   0.0000000), wk =   0.0234375
        k(   14) = (   0.4419417   0.0883883  -0.0883883), wk =   0.0937500
        k(   15) = (  -0.1767767  -0.5303301   0.5303301), wk =   0.0937500
        k(   16) = (  -0.0883883  -0.4419417   0.4419417), wk =   0.0937500
        k(   17) = (   0.0000000  -0.3535534   0.3535534), wk =   0.0468750
        k(   18) = (   0.5303301   0.0000000   0.0000000), wk =   0.0234375
        k(   19) = (  -0.0883883  -0.6187184   0.6187184), wk =   0.0937500
        k(   20) = (   0.0000000  -0.5303301   0.5303301), wk =   0.0468750
        k(   21) = (  -0.7071068   0.0000000   0.0000000), wk =   0.0117188
        k(   22) = (   0.3535534   0.1767767   0.0000000), wk =   0.0937500
        k(   23) = (  -0.2651650  -0.4419417   0.6187184), wk =   0.1875000
        k(   24) = (  -0.1767767  -0.3535534   0.5303301), wk =   0.0937500
        k(   25) = (  -0.1767767  -0.5303301   0.7071068), wk =   0.0937500
        k(   26) = (  -0.0883883  -0.4419417   0.6187184), wk =   0.1875000
        k(   27) = (   0.0000000  -0.3535534   0.5303301), wk =   0.0937500
        k(   28) = (  -0.7071068   0.1767767   0.0000000), wk =   0.0468750
        k(   29) = (  -0.7071068   0.3535534   0.0000000), wk =   0.0234375

     Dense  grid:     3839 G-vectors     FFT dimensions: (  24,  24,  24)

     Estimated max dynamical RAM per process >       2.06 MB

     Estimated total dynamical RAM >       8.25 MB

     Initial potential from superposition of free atoms

     starting charge       2.9976, renormalised to       3.0000
     Starting wfcs are    4 randomized atomic wfcs +    2 random wfcs

     total cpu time spent up to now is        0.2 secs

     per-process dynamical memory:    12.0 Mb

     Self-consistent Calculation

     iteration #  1     ecut=    40.00 Ry     beta= 0.70
     Davidson diagonalization with overlap
     ethr =  1.00E-02,  avg # of iterations =  6.0

     Threshold (ethr) on eigenvalues was too large:
     Diagonalizing with lowered threshold

     Davidson diagonalization with overlap
     ethr =  1.96E-04,  avg # of iterations =  3.8

     total cpu time spent up to now is        0.4 secs

     total energy              =      -4.63489448 Ry
     estimated scf accuracy    <       0.00579879 Ry

     iteration #  2     ecut=    40.00 Ry     beta= 0.70
     Davidson diagonalization with overlap
     ethr =  1.93E-04,  avg # of iterations =  1.0

     total cpu time spent up to now is        0.5 secs

     total energy              =      -4.63486335 Ry
     estimated scf accuracy    <       0.00041532 Ry

     iteration #  3     ecut=    40.00 Ry     beta= 0.70
     Davidson diagonalization with overlap
     ethr =  1.38E-05,  avg # of iterations =  2.9

     total cpu time spent up to now is        0.6 secs

     total energy              =      -4.63488032 Ry
     estimated scf accuracy    <       0.00000072 Ry

     iteration #  4     ecut=    40.00 Ry     beta= 0.70
     Davidson diagonalization with overlap
     ethr =  2.41E-08,  avg # of iterations =  3.4

     total cpu time spent up to now is        0.7 secs

     total energy              =      -4.63488147 Ry
     estimated scf accuracy    <       0.00000001 Ry

     iteration #  5     ecut=    40.00 Ry     beta= 0.70
     Davidson diagonalization with overlap
     ethr =  3.97E-10,  avg # of iterations =  2.3

     total cpu time spent up to now is        0.8 secs

     End of self-consistent calculation

          k = 0.0000 0.0000 0.0000 (   531 PWs)   bands (ev):

    -3.2269  20.4517  20.4517  21.8841  21.8841  21.8841

          k = 0.0884 0.0884-0.0884 (   495 PWs)   bands (ev):

    -2.8043  16.1567  19.4970  19.4970  22.5200  23.4315

          k = 0.1768 0.1768-0.1768 (   483 PWs)   bands (ev):

    -1.5438  11.2985  18.7306  18.7306  22.1677  22.5578

          k = 0.2652 0.2652-0.2652 (   477 PWs)   bands (ev):

     0.5333   7.0064  18.6389  18.6389  20.5795  20.5796

          k =-0.3536-0.3536 0.3536 (   476 PWs)   bands (ev):

     3.2945   3.5016  19.2110  19.2110  19.2991  19.2991

          k = 0.1768 0.0000 0.0000 (   495 PWs)   bands (ev):

    -2.6637  17.7410  17.7411  18.0032  20.7414  22.4524

          k = 0.2652 0.0884-0.0884 (   484 PWs)   bands (ev):

    -1.6833  13.1547  16.6790  18.1975  19.4254  21.9468

          k = 0.3536 0.1768-0.1768 (   471 PWs)   bands (ev):

     0.1199   8.7016  16.3321  17.0575  18.0341  24.0387

          k =-0.2652-0.4419 0.4419 (   473 PWs)   bands (ev):

     2.7134   4.8803  15.4348  16.7033  18.4713  22.5301

          k =-0.1768-0.3536 0.3536 (   477 PWs)   bands (ev):

     1.7649   6.0720  14.5555  17.7942  19.6517  21.6900

          k =-0.0884-0.2652 0.2652 (   485 PWs)   bands (ev):

    -0.5709  10.0995  14.4564  19.5844  21.5323  21.5391

          k = 0.0000-0.1768 0.1768 (   489 PWs)   bands (ev):

    -2.1027  14.2994  15.5317  21.5466  21.8335  23.1734

          k = 0.3536 0.0000 0.0000 (   480 PWs)   bands (ev):

    -0.9872  15.3383  15.3563  15.3563  16.1001  18.8161

          k = 0.4419 0.0884-0.0884 (   478 PWs)   bands (ev):

     0.5317  11.0841  13.4344  14.7597  16.2273  20.2303

          k =-0.1768-0.5303 0.5303 (   477 PWs)   bands (ev):

     2.8432   7.1176  11.5131  14.8861  16.5685  23.8906

          k =-0.0884-0.4419 0.4419 (   479 PWs)   bands (ev):

     3.7894   5.8999  10.3926  15.7355  17.5567  25.4420

          k = 0.0000-0.3536 0.3536 (   481 PWs)   bands (ev):

     1.2185   9.1085  10.6076  17.3082  19.2683  24.7897

          k = 0.5303 0.0000 0.0000 (   472 PWs)   bands (ev):

     1.7579  10.4483  13.6834  13.9176  13.9176  17.3898

          k =-0.0884-0.6187 0.6187 (   474 PWs)   bands (ev):

     3.7547   8.2417  10.0745  13.7996  15.1648  19.2949

          k = 0.0000-0.5303 0.5303 (   478 PWs)   bands (ev):

     5.9926   6.5179   7.4664  14.4047  16.0444  23.4767

          k =-0.7071 0.0000 0.0000 (   468 PWs)   bands (ev):

     4.9569   6.2727  13.1273  13.4383  13.4383  16.8807

          k = 0.3536 0.1768 0.0000 (   482 PWs)   bands (ev):

    -0.4326  11.7100  13.1046  16.6155  19.9701  21.7211

          k =-0.2652-0.4419 0.6187 (   481 PWs)   bands (ev):

     1.6273   8.0057  12.4315  14.4849  20.5891  22.6684

          k =-0.1768-0.3536 0.5303 (   476 PWs)   bands (ev):

     4.3385   4.5902  12.8297  13.2910  21.1091  21.5453

          k =-0.1768-0.5303 0.7071 (   471 PWs)   bands (ev):

     2.3017  10.1501  10.8605  11.7420  18.4813  20.4739

          k =-0.0884-0.4419 0.6187 (   478 PWs)   bands (ev):

     4.8186   6.9448   9.3220  11.4760  19.6592  23.7757

          k = 0.0000-0.3536 0.5303 (   481 PWs)   bands (ev):

     3.9198   7.5493   9.0134  12.5789  20.8694  24.1059

          k =-0.7071 0.1768 0.0000 (   478 PWs)   bands (ev):

     5.4745   6.8130   9.6295  11.1295  17.9737  20.0202

          k =-0.7071 0.3536 0.0000 (   488 PWs)   bands (ev):

     7.0300   7.0300   8.0474   8.9519  23.6333  24.1412

     the Fermi energy is     7.8312 ev

!    total energy              =      -4.63488147 Ry
     estimated scf accuracy    <          1.4E-11 Ry
     smearing contrib. (-TS)   =       0.00006092 Ry
     internal energy E=F+TS    =      -4.63494240 Ry

     The total energy is F=E-TS. E is the sum of the following terms:
     one-electron contribution =       2.91422628 Ry
     hartree contribution      =       0.00760337 Ry
     xc contribution           =      -2.16387481 Ry
     ewald contribution        =      -5.39289724 Ry

     convergence has been achieved in   5 iterations

     Forces acting on atoms (cartesian axes, Ry/au):

     atom    1 type  1   force =     0.00000000    0.00000000    0.00000000

     Total force =     0.000000     Total SCF correction =     0.000000


     Computing stress (Cartesian axis) and pressure

          total   stress  (Ry/bohr**3)                   (kbar)     P=       -5.94
  -0.00004038  -0.00000000   0.00000000           -5.94       -0.00        0.00
  -0.00000000  -0.00004038   0.00000000           -0.00       -5.94        0.00
  -0.00000000  -0.00000000  -0.00004038           -0.00       -0.00       -5.94


     Writing all to output data dir ./tmp/ecut_40.save/ :
     XML data file, charge density, pseudopotentials, collected wavefunctions

     init_run     :      0.13s CPU      0.15s WALL (       1 calls)
     electrons    :      0.44s CPU      0.63s WALL (       1 calls)
     forces       :      0.01s CPU      0.01s WALL (       1 calls)
     stress       :      0.02s CPU      0.02s WALL (       1 calls)

     Called by init_run:
     wfcinit      :      0.02s CPU      0.03s WALL (       1 calls)
     potinit      :      0.00s CPU      0.01s WALL (       1 calls)
     hinit0       :      0.11s CPU      0.11s WALL (       1 calls)

     Called by electrons:
     c_bands      :      0.37s CPU      0.53s WALL (       6 calls)
     sum_band     :      0.06s CPU      0.10s WALL (       6 calls)
     v_of_rho     :      0.01s CPU      0.01s WALL (       6 calls)
     mix_rho      :      0.00s CPU      0.00s WALL (       6 calls)

     Called by c_bands:
     init_us_2    :      0.01s CPU      0.01s WALL (     435 calls)
     cegterg      :      0.36s CPU      0.51s WALL (     174 calls)

     Called by *egterg:
     cdiaghg      :      0.02s CPU      0.02s WALL (     708 calls)
     h_psi        :      0.32s CPU      0.46s WALL (     766 calls)
     g_psi        :      0.00s CPU      0.00s WALL (     563 calls)

     Called by h_psi:
     h_psi:calbec :      0.01s CPU      0.02s WALL (     766 calls)
     vloc_psi     :      0.30s CPU      0.43s WALL (     766 calls)
                                        0.00s GPU  (     766 calls)
     add_vuspsi   :      0.00s CPU      0.00s WALL (     766 calls)

     General routines
     calbec       :      0.02s CPU      0.02s WALL (    1259 calls)
     fft          :      0.10s CPU      0.10s WALL (      85 calls)
     ffts         :      0.00s CPU      0.00s WALL (       6 calls)
     fftw         :      0.33s CPU      0.46s WALL (    7220 calls)

     Parallel routines

     PWSCF        :      0.62s CPU      0.84s WALL


   This run was terminated on:  19:39:42   8Sep2026            

=------------------------------------------------------------------------------=
   JOB DONE.
=------------------------------------------------------------------------------=
