8
Lattice="4.9326481819 0.0 0.0 -2.4663246598 4.2717983051 0.0 0.0 0.0 15.0" Properties=species:S:1:pos:R:3 pbc="T T T"
C        0.00000000       0.00000000       7.50000000
C       -1.23316233       2.13589915       7.50000000
C        2.46632409       0.00000000       7.50000000
C        1.23316176       2.13589915       7.50000000
C       -0.00000019       1.42393268       7.50000000
C       -1.23316252       3.55983184       7.50000000
C        2.46632375       1.42393268       7.50000000
C        1.23316142       3.55983184       7.50000000
